 Entering Gaussian System
 *********************************************
 Gaussian 98:
 frequency output generated by the xtb code
 *********************************************
                         Standard orientation:
 --------------------------------------------------------------------
  Center     Atomic     Atomic              Coordinates (Angstroms)
  Number     Number      Type              X           Y           Z
 --------------------------------------------------------------------
    1          6             0        2.522518    0.231869   -0.001497
    2          6             0        1.038986    0.339779   -0.001845
    3          6             0        0.259936    1.513951    0.000255
    4          6             0       -1.042842    1.080364   -0.004048
    5          7             0       -0.992915   -0.267209   -0.008140
    6          7             0        0.257028   -0.726781   -0.007130
    7          1             0        2.971523    1.221780    0.004776
    8          1             0        2.860694   -0.310169   -0.882504
    9          1             0        2.860716   -0.321401    0.872723
   10          1             0        0.613155    2.524306    0.003162
   11          1             0       -1.969935    1.617659   -0.003438
   12          1             0       -1.758591   -0.919572   -0.018160
   13          6             0       -3.727275   -2.922860    0.010922
   14          7             0       -4.622660   -3.800360    0.007812
   15          7             0       -5.435130   -4.583527    0.003060
   16          1             0       -2.694992   -3.218259    0.016414
   17          1             0       -4.016918   -1.888946    0.018051
 --------------------------------------------------------------------
     1 basis functions        1 primitive gaussians
     1 alpha electrons        1 beta electrons

 Harmonic frequencies (cm**-1), IR intensities (km*mol⁻¹),
 Raman scattering activities (A**4/amu), Raman depolarization ratios,
 reduced masses (AMU), force constants (mDyne/A) and normal coordinates:
                      1                      2                      3
                        a                      a                      a 
 Frequencies --   -79.1312               -50.6390               -18.4280
 Red. masses --     1.6033                10.2020                11.2177
 Frc consts  --     0.0000                 0.0000                 0.0000
 IR Inten    --     0.4179                 4.2734                 1.3911
 Raman Activ --     0.0000                 0.0000                 0.0000
 Depolar     --     0.0000                 0.0000                 0.0000
 Atom AN      X      Y      Z        X      Y      Z        X      Y      Z
   1   6     0.00   0.00  -0.01    -0.00  -0.00   0.14    -0.00  -0.02  -0.25
   2   6     0.00   0.00   0.03    -0.00  -0.00   0.01    -0.00  -0.00  -0.07
   3   6    -0.00  -0.00  -0.12    -0.01  -0.00   0.13     0.01   0.00  -0.34
   4   6    -0.00  -0.00  -0.09    -0.00  -0.00  -0.09     0.00   0.02  -0.02
   5   7     0.00  -0.00   0.06    -0.00  -0.00  -0.33    -0.01   0.02   0.44
   6   7     0.00  -0.00   0.15    -0.00  -0.00  -0.27    -0.02   0.00   0.41
   7   1    -0.00  -0.00   0.54    -0.00  -0.00   0.11     0.00  -0.01  -0.17
   8   1     0.03   0.49  -0.30     0.02   0.05   0.02    -0.04  -0.08  -0.04
   9   1    -0.03  -0.48  -0.30    -0.03  -0.05   0.02     0.03   0.07  -0.04
  10   1    -0.00   0.00  -0.06    -0.00  -0.00   0.10     0.01   0.00  -0.21
  11   1    -0.00  -0.00  -0.05    -0.00  -0.00  -0.03     0.00   0.01  -0.02
  12   1     0.00  -0.00   0.04    -0.00  -0.00  -0.17    -0.01   0.01   0.22
  13   6    -0.00   0.00  -0.02     0.01   0.00   0.60     0.00   0.00   0.30
  14   7    -0.00   0.00  -0.00     0.01   0.01   0.12     0.01  -0.00  -0.08
  15   7    -0.00   0.00   0.02     0.01   0.01  -0.41     0.01  -0.01  -0.43
  16   1    -0.00   0.00  -0.02     0.00  -0.00   0.15     0.00   0.00   0.09
  17   1    -0.00   0.00   0.00     0.00  -0.00   0.39    -0.00  -0.00   0.17
                      4                      5                      6
                        a                      a                      a 
 Frequencies --   -15.0489                38.1943                60.0068
 Red. masses --    11.2228                12.3884                10.6707
 Frc consts  --     0.0000                 0.0000                 0.0000
 IR Inten    --     1.5708                 0.3957                 4.6586
 Raman Activ --     0.0000                 0.0000                 0.0000
 Depolar     --     0.0000                 0.0000                 0.0000
 Atom AN      X      Y      Z        X      Y      Z        X      Y      Z
   1   6    -0.11  -0.45   0.01     0.15   0.02   0.01    -0.05  -0.10   0.00
   2   6    -0.09  -0.14   0.00     0.15   0.11   0.00    -0.05   0.00   0.00
   3   6     0.16   0.03   0.01     0.22   0.16   0.00     0.03   0.05  -0.00
   4   6     0.07   0.31  -0.00     0.20   0.24  -0.00     0.00   0.13  -0.00
   5   7    -0.23   0.32  -0.02     0.12   0.25  -0.01    -0.09   0.14   0.00
   6   7    -0.34   0.03  -0.02     0.09   0.17  -0.01    -0.12   0.06   0.00
   7   1     0.03  -0.16   0.01     0.06  -0.00   0.00     0.00  -0.04   0.00
   8   1    -0.06  -0.14   0.00     0.03   0.00   0.00    -0.03  -0.03   0.00
   9   1    -0.07  -0.16   0.00     0.03  -0.00   0.00    -0.03  -0.03   0.00
  10   1     0.11  -0.01   0.01     0.08   0.04   0.00     0.03   0.01  -0.00
  11   1     0.05   0.15  -0.00     0.07   0.09  -0.00     0.01   0.06  -0.00
  12   1    -0.10   0.13  -0.01     0.02   0.08  -0.00    -0.03   0.05   0.00
  13   6     0.03   0.13  -0.01    -0.33  -0.27   0.01     0.48  -0.49  -0.01
  14   7     0.19  -0.03   0.00    -0.32  -0.32   0.00     0.09  -0.09  -0.00
  15   7     0.34  -0.18   0.02    -0.29  -0.35  -0.01    -0.34   0.36   0.01
  16   1     0.02   0.09  -0.01    -0.09  -0.06   0.00     0.10  -0.27  -0.03
  17   1    -0.05   0.02  -0.01    -0.10  -0.08   0.01     0.27  -0.11   0.02
                      7                      8                      9
                        a                      a                      a 
 Frequencies --   103.1271               264.2008               324.5102
 Red. masses --     1.5550                 9.3764                 8.9217
 Frc consts  --     0.0000                 0.0000                 0.0000
 IR Inten    --     0.0764                 5.1015                 5.2332
 Raman Activ --     0.0000                 0.0000                 0.0000
 Depolar     --     0.0000                 0.0000                 0.0000
 Atom AN      X      Y      Z        X      Y      Z        X      Y      Z
   1   6     0.00   0.01   0.06    -0.00   0.00  -0.36     0.03   0.46   0.00
   2   6     0.00   0.00   0.02    -0.00  -0.00   0.49    -0.02  -0.39  -0.00
   3   6    -0.00  -0.00  -0.05    -0.00  -0.00   0.30     0.24  -0.23  -0.00
   4   6     0.00  -0.01  -0.06     0.00   0.00  -0.29     0.15   0.11   0.00
   5   7     0.00  -0.01   0.01     0.00   0.00  -0.24    -0.17   0.10   0.00
   6   7     0.01  -0.00   0.06    -0.00  -0.00   0.34    -0.26  -0.26  -0.00
   7   1    -0.00   0.00  -0.01     0.00   0.00  -0.23    -0.23   0.24  -0.00
   8   1     0.01  -0.02   0.03    -0.20  -0.01  -0.17     0.14   0.22  -0.00
   9   1    -0.00   0.02   0.03     0.20   0.01  -0.17     0.14   0.22   0.00
  10   1    -0.00  -0.00  -0.02    -0.00  -0.00   0.12     0.16  -0.10  -0.00
  11   1    -0.00  -0.00  -0.03     0.00   0.00  -0.22     0.08   0.10   0.00
  12   1     0.00  -0.00   0.00     0.00   0.00  -0.15    -0.09   0.08  -0.00
  13   6    -0.02   0.02  -0.15    -0.00  -0.00  -0.03     0.00  -0.00   0.00
  14   7    -0.00   0.00  -0.00    -0.00  -0.00   0.01     0.01  -0.01  -0.00
  15   7     0.01  -0.01   0.10    -0.00  -0.00  -0.00    -0.01   0.01   0.00
  16   1    -0.00   0.01  -0.71    -0.00  -0.00   0.02     0.00   0.01   0.00
  17   1    -0.01   0.00   0.66     0.00  -0.00   0.01    -0.01  -0.00  -0.00
                     10                     11                     12
                        a                      a                      a 
 Frequencies --   379.6467               389.8950               518.1779
 Red. masses --    11.4867                11.0226                 8.2446
 Frc consts  --     0.0000                 0.0000                 0.0000
 IR Inten    --    68.5683                 0.5453                20.8515
 Raman Activ --     0.0000                 0.0000                 0.0000
 Depolar     --     0.0000                 0.0000                 0.0000
 Atom AN      X      Y      Z        X      Y      Z        X      Y      Z
   1   6    -0.00  -0.00  -0.00    -0.00   0.01   0.00    -0.00   0.00   0.00
   2   6    -0.00   0.00   0.02    -0.00  -0.01  -0.00    -0.00   0.00   0.03
   3   6    -0.00  -0.00   0.02     0.01  -0.00  -0.00     0.00  -0.00  -0.10
   4   6    -0.00  -0.00  -0.00     0.00   0.01   0.00    -0.00  -0.00   0.28
   5   7     0.00   0.00  -0.07    -0.01   0.01   0.00     0.00   0.00  -0.60
   6   7     0.00  -0.00   0.01    -0.01  -0.00  -0.00    -0.00  -0.00   0.22
   7   1     0.00  -0.00  -0.00    -0.01   0.00   0.00    -0.00   0.00  -0.01
   8   1    -0.01  -0.00  -0.00     0.00   0.00   0.00    -0.00  -0.00   0.00
   9   1     0.01   0.00  -0.00     0.00   0.00   0.00     0.00   0.00   0.00
  10   1    -0.00  -0.00   0.01     0.01  -0.00  -0.00     0.00  -0.00  -0.07
  11   1    -0.00  -0.00  -0.00     0.00   0.01   0.00    -0.00  -0.00   0.13
  12   1    -0.00  -0.00   0.08     0.00  -0.00   0.00    -0.00  -0.00   0.59
  13   6    -0.00  -0.00   0.55     0.14  -0.14   0.00     0.00  -0.00   0.03
  14   7     0.00   0.00  -0.67    -0.51   0.53  -0.00    -0.00  -0.00   0.22
  15   7    -0.00  -0.00   0.31     0.31  -0.32   0.00     0.00   0.00  -0.14
  16   1     0.00   0.00  -0.29    -0.04  -0.33  -0.00     0.00   0.00  -0.18
  17   1    -0.00   0.00  -0.24     0.33   0.04   0.00     0.00   0.00  -0.17
                     13                     14                     15
                        a                      a                      a 
 Frequencies --   557.4583               616.0235               646.9367
 Red. masses --     6.2546                 6.6544                 9.7308
 Frc consts  --     0.0000                 0.0000                 0.0000
 IR Inten    --    43.0827                29.4292                26.3688
 Raman Activ --     0.0000                 0.0000                 0.0000
 Depolar     --     0.0000                 0.0000                 0.0000
 Atom AN      X      Y      Z        X      Y      Z        X      Y      Z
   1   6     0.00   0.00  -0.00     0.00  -0.00  -0.03    -0.01   0.00   0.08
   2   6     0.00   0.00   0.01     0.00   0.00  -0.32    -0.00  -0.00   0.56
   3   6     0.00   0.00  -0.11    -0.00  -0.00   0.46     0.00   0.00  -0.19
   4   6    -0.00  -0.00   0.20    -0.00   0.00  -0.41     0.00  -0.00  -0.04
   5   7     0.00   0.00  -0.26     0.00   0.00   0.12     0.00  -0.00   0.19
   6   7    -0.00  -0.00   0.14    -0.00  -0.00  -0.03     0.00   0.00  -0.57
   7   1     0.00   0.00  -0.00    -0.00  -0.00   0.04    -0.00   0.00  -0.06
   8   1    -0.00  -0.00  -0.00     0.10  -0.01   0.04    -0.17   0.01  -0.05
   9   1     0.00   0.00  -0.00    -0.10   0.01   0.04     0.17  -0.01  -0.05
  10   1     0.00   0.00  -0.05    -0.00  -0.00   0.19     0.00   0.00  -0.16
  11   1    -0.00  -0.00   0.10     0.00   0.00  -0.23     0.00  -0.00  -0.08
  12   1    -0.00  -0.00   0.09    -0.00  -0.00   0.60    -0.00  -0.00   0.41
  13   6     0.00   0.00  -0.18     0.00   0.00  -0.05     0.00   0.00  -0.03
  14   7     0.00   0.00  -0.41     0.00   0.00  -0.05     0.00   0.00  -0.02
  15   7    -0.00  -0.00   0.28     0.00   0.00   0.04     0.00   0.00   0.02
  16   1    -0.00  -0.00   0.55    -0.00  -0.00   0.11    -0.00  -0.00   0.06
  17   1    -0.00  -0.00   0.51    -0.00  -0.00   0.10    -0.00  -0.00   0.05
                     16                     17                     18
                        a                      a                      a 
 Frequencies --   675.0151               789.4140               817.4717
 Red. masses --    10.6516                 3.2499                 3.0374
 Frc consts  --     0.0000                 0.0000                 0.0000
 IR Inten    --     0.9380                 7.2949                 8.5024
 Raman Activ --     0.0000                 0.0000                 0.0000
 Depolar     --     0.0000                 0.0000                 0.0000
 Atom AN      X      Y      Z        X      Y      Z        X      Y      Z
   1   6     0.67  -0.06   0.00    -0.00  -0.00   0.02    -0.00  -0.00   0.01
   2   6     0.25  -0.03   0.01    -0.00  -0.00   0.07    -0.00  -0.00   0.05
   3   6    -0.20  -0.19  -0.00    -0.00  -0.00   0.02     0.00   0.00  -0.42
   4   6    -0.32   0.02  -0.00     0.00   0.00  -0.44    -0.00   0.00   0.03
   5   7    -0.29   0.06   0.00    -0.00  -0.00   0.02     0.00   0.00   0.05
   6   7    -0.18   0.17  -0.00    -0.00   0.00   0.03     0.00  -0.00   0.02
   7   1     0.18  -0.01  -0.00     0.00   0.00  -0.02    -0.00   0.00  -0.01
   8   1     0.21  -0.00  -0.00    -0.04   0.00  -0.01    -0.02   0.00  -0.01
   9   1     0.21  -0.00   0.00     0.04  -0.00  -0.01     0.02  -0.00  -0.01
  10   1    -0.14  -0.02  -0.00     0.00  -0.00   0.06    -0.00  -0.00   0.90
  11   1    -0.06   0.06  -0.00    -0.00  -0.00   0.89    -0.00   0.00  -0.04
  12   1    -0.02  -0.05   0.00     0.00  -0.00   0.04    -0.00  -0.00   0.07
  13   6     0.00   0.00  -0.00     0.00   0.00  -0.00    -0.00  -0.00  -0.00
  14   7     0.00   0.00   0.00    -0.00  -0.00  -0.00     0.00   0.00  -0.00
  15   7     0.00   0.00  -0.00     0.00   0.00   0.00    -0.00   0.00   0.00
  16   1    -0.00  -0.00  -0.00    -0.00  -0.00   0.00    -0.00  -0.00   0.00
  17   1    -0.00  -0.00   0.00    -0.00  -0.00   0.00    -0.00  -0.00   0.00
                     19                     20                     21
                        a                      a                      a 
 Frequencies --   890.4350               980.3171              1003.6084
 Red. masses --    11.4535                 6.6568                 5.1468
 Frc consts  --     0.0000                 0.0000                 0.0000
 IR Inten    --     2.1026                 7.5235                 5.9506
 Raman Activ --     0.0000                 0.0000                 0.0000
 Depolar     --     0.0000                 0.0000                 0.0000
 Atom AN      X      Y      Z        X      Y      Z        X      Y      Z
   1   6     0.05   0.05   0.00     0.17  -0.26   0.00     0.16   0.26   0.00
   2   6     0.00   0.19   0.00    -0.15  -0.10  -0.00    -0.09   0.04  -0.00
   3   6     0.26   0.20   0.00    -0.10   0.52   0.00    -0.01   0.10   0.00
   4   6     0.41  -0.35  -0.00     0.12  -0.01  -0.00     0.02  -0.01  -0.00
   5   7    -0.46  -0.36  -0.00     0.09   0.00   0.00    -0.05   0.01   0.00
   6   7    -0.20   0.23   0.00    -0.07  -0.24  -0.00    -0.02  -0.31  -0.00
   7   1     0.05  -0.00  -0.00    -0.28   0.09  -0.00     0.43  -0.11  -0.00
   8   1    -0.01  -0.00   0.00     0.26   0.10  -0.02    -0.17  -0.11   0.02
   9   1    -0.01  -0.00  -0.00     0.27   0.09   0.02    -0.17  -0.11  -0.03
  10   1    -0.15   0.13   0.00    -0.21   0.22   0.00     0.10  -0.01   0.00
  11   1     0.23   0.10   0.00    -0.14  -0.30  -0.00    -0.06  -0.11  -0.00
  12   1    -0.12  -0.09   0.00    -0.13   0.17   0.00    -0.17   0.18   0.00
  13   6     0.00   0.00   0.00     0.04  -0.04  -0.00     0.20  -0.20  -0.00
  14   7     0.00   0.00   0.00    -0.03   0.03   0.00    -0.16   0.16   0.00
  15   7     0.00   0.00  -0.00     0.00  -0.01  -0.00     0.02  -0.03  -0.00
  16   1    -0.00  -0.01  -0.00     0.03   0.06   0.00     0.16   0.35   0.00
  17   1    -0.01  -0.00  -0.00    -0.06  -0.03  -0.00    -0.34  -0.15   0.00
                     22                     23                     24
                        a                      a                      a 
 Frequencies --  1012.6949              1032.0107              1065.0441
 Red. masses --     5.7505                 4.6236                 3.5733
 Frc consts  --     0.0000                 0.0000                 0.0000
 IR Inten    --     0.6715                11.9937                20.4249
 Raman Activ --     0.0000                 0.0000                 0.0000
 Depolar     --     0.0000                 0.0000                 0.0000
 Atom AN      X      Y      Z        X      Y      Z        X      Y      Z
   1   6     0.18   0.19   0.00     0.00   0.00  -0.43     0.04  -0.04   0.00
   2   6    -0.12   0.01  -0.00    -0.00  -0.00   0.37    -0.03   0.09  -0.00
   3   6    -0.02   0.19   0.00     0.00   0.00  -0.04     0.18   0.06   0.00
   4   6     0.04   0.02  -0.00     0.00  -0.00  -0.02    -0.06  -0.11  -0.00
   5   7    -0.03   0.00   0.00     0.00   0.00  -0.00    -0.01  -0.09  -0.00
   6   7    -0.06  -0.31  -0.00    -0.00  -0.00  -0.04    -0.23   0.28   0.00
   7   1     0.34  -0.09  -0.00    -0.00  -0.00   0.22    -0.04   0.02  -0.00
   8   1    -0.10  -0.08   0.02     0.53  -0.08   0.15     0.05   0.03  -0.01
   9   1    -0.10  -0.08  -0.02    -0.53   0.08   0.16     0.05   0.03   0.01
  10   1     0.08   0.02   0.00    -0.00   0.00  -0.00     0.63  -0.18   0.00
  11   1    -0.08  -0.14  -0.00    -0.00  -0.00   0.03    -0.29  -0.49  -0.00
  12   1    -0.11   0.12   0.00    -0.00   0.00   0.00     0.09  -0.13  -0.00
  13   6    -0.23   0.23   0.00    -0.00   0.00  -0.00     0.01  -0.01   0.00
  14   7     0.18  -0.19  -0.00     0.00  -0.00   0.00    -0.01   0.01   0.00
  15   7    -0.02   0.03   0.00    -0.00   0.00   0.00     0.00   0.00  -0.00
  16   1    -0.18  -0.40   0.00    -0.00  -0.00   0.00     0.01   0.01  -0.00
  17   1     0.40   0.17  -0.00     0.00   0.00   0.00    -0.02  -0.01  -0.00
                     25                     26                     27
                        a                      a                      a 
 Frequencies --  1100.1722              1179.2361              1244.3569
 Red. masses --     7.0971                 4.5531                10.0922
 Frc consts  --     0.0000                 0.0000                 0.0000
 IR Inten    --    20.0041                21.2273                38.8293
 Raman Activ --     0.0000                 0.0000                 0.0000
 Depolar     --     0.0000                 0.0000                 0.0000
 Atom AN      X      Y      Z        X      Y      Z        X      Y      Z
   1   6     0.10  -0.10  -0.00     0.05   0.11   0.00    -0.12   0.04   0.00
   2   6    -0.15   0.02   0.00    -0.09  -0.20  -0.00     0.25  -0.20  -0.00
   3   6    -0.16   0.31   0.00     0.10   0.20   0.00     0.16   0.02   0.00
   4   6    -0.13   0.24   0.00     0.02   0.21   0.00    -0.02   0.32   0.00
   5   7    -0.20  -0.32  -0.00     0.15  -0.05   0.00    -0.53  -0.03  -0.00
   6   7     0.30  -0.18  -0.00    -0.32  -0.09  -0.00     0.46  -0.02   0.00
   7   1    -0.05   0.01   0.00     0.15  -0.04  -0.00    -0.05   0.02   0.00
   8   1     0.10   0.03  -0.01    -0.04  -0.04   0.02    -0.09  -0.03   0.00
   9   1     0.10   0.03   0.01    -0.04  -0.04  -0.02    -0.09  -0.03  -0.00
  10   1     0.48  -0.09   0.00    -0.19   0.14  -0.00    -0.16   0.08  -0.00
  11   1     0.16   0.42   0.00    -0.02   0.02  -0.00    -0.27  -0.34  -0.00
  12   1     0.02  -0.17   0.00     0.52  -0.58  -0.00    -0.01  -0.15   0.00
  13   6     0.01  -0.01   0.00     0.02  -0.02   0.00    -0.01  -0.01   0.00
  14   7    -0.00   0.01   0.00    -0.01   0.01   0.00     0.00   0.00   0.00
  15   7     0.00   0.00  -0.00     0.00  -0.00   0.00     0.01   0.01   0.00
  16   1     0.00   0.01  -0.00     0.01   0.03  -0.00    -0.01  -0.02  -0.00
  17   1    -0.02  -0.01   0.00    -0.05  -0.02   0.00    -0.02  -0.01  -0.00
                     28                     29                     30
                        a                      a                      a 
 Frequencies --  1267.7924              1383.8295              1397.3779
 Red. masses --     4.3867                11.7887                 3.2723
 Frc consts  --     0.0000                 0.0000                 0.0000
 IR Inten    --     3.0500                42.8064                 0.9945
 Raman Activ --     0.0000                 0.0000                 0.0000
 Depolar     --     0.0000                 0.0000                 0.0000
 Atom AN      X      Y      Z        X      Y      Z        X      Y      Z
   1   6    -0.00   0.00  -0.00     0.01   0.11   0.00    -0.40   0.03   0.00
   2   6     0.01  -0.01   0.00    -0.05  -0.54  -0.00    -0.09   0.05   0.00
   3   6     0.01   0.01   0.00    -0.49   0.05  -0.00     0.01  -0.09  -0.00
   4   6     0.00   0.01   0.00     0.37   0.10   0.00     0.05  -0.01   0.00
   5   7    -0.03  -0.01  -0.00     0.09  -0.14  -0.00    -0.08   0.08   0.00
   6   7     0.01   0.00  -0.00     0.04   0.45   0.00     0.09  -0.00   0.00
   7   1    -0.00   0.00   0.00     0.10  -0.02   0.00     0.46  -0.23  -0.00
   8   1    -0.00  -0.00   0.00    -0.02  -0.09   0.05     0.48   0.05   0.17
   9   1    -0.00  -0.00  -0.00    -0.03  -0.08  -0.05     0.48   0.05  -0.17
  10   1    -0.00   0.00   0.00     0.07  -0.07  -0.00    -0.03  -0.02  -0.00
  11   1    -0.01  -0.01  -0.00     0.06  -0.07  -0.00    -0.01  -0.04  -0.00
  12   1     0.01  -0.01   0.00    -0.07   0.09   0.00     0.03  -0.04  -0.00
  13   6     0.20   0.20   0.00    -0.01  -0.01  -0.00     0.01   0.01   0.00
  14   7    -0.10  -0.11  -0.00     0.00   0.00  -0.00    -0.00  -0.00   0.00
  15   7    -0.29  -0.28  -0.00     0.00   0.00   0.00    -0.00  -0.00  -0.00
  16   1     0.22   0.56   0.00    -0.00   0.00   0.00     0.00  -0.00  -0.00
  17   1     0.57   0.22   0.00     0.00  -0.00   0.00    -0.00  -0.00  -0.00
                     31                     32                     33
                        a                      a                      a 
 Frequencies --  1414.1452              1428.9303              1460.4463
 Red. masses --    11.2040                 9.5553                 8.4515
 Frc consts  --     0.0000                 0.0000                 0.0000
 IR Inten    --     5.9411                22.4482                20.1915
 Raman Activ --     0.0000                 0.0000                 0.0000
 Depolar     --     0.0000                 0.0000                 0.0000
 Atom AN      X      Y      Z        X      Y      Z        X      Y      Z
   1   6    -0.11   0.04   0.00     0.00   0.00  -0.00    -0.18   0.17   0.00
   2   6     0.14   0.00   0.00     0.00  -0.01  -0.00     0.44  -0.24  -0.00
   3   6     0.25  -0.02   0.00    -0.01   0.00  -0.00     0.06   0.36   0.00
   4   6    -0.25   0.41   0.00     0.00   0.00   0.00    -0.31  -0.33  -0.00
   5   7     0.27  -0.61  -0.00     0.01  -0.00   0.00     0.02   0.12   0.00
   6   7    -0.21   0.12   0.00    -0.00   0.00   0.00    -0.07  -0.02  -0.00
   7   1     0.06  -0.03  -0.00    -0.00   0.00   0.00    -0.12   0.06   0.00
   8   1     0.04  -0.01   0.03    -0.01  -0.00   0.00     0.05  -0.28   0.22
   9   1     0.04  -0.01  -0.03    -0.01  -0.00  -0.00     0.05  -0.28  -0.22
  10   1    -0.12   0.07   0.00    -0.00  -0.00   0.00     0.12   0.08   0.00
  11   1    -0.11   0.06  -0.00     0.00   0.00  -0.00     0.04   0.14   0.00
  12   1    -0.26   0.22   0.00    -0.01   0.01  -0.00    -0.01   0.05   0.00
  13   6    -0.01  -0.00  -0.00     0.52   0.51   0.00    -0.00  -0.00  -0.00
  14   7     0.00  -0.00  -0.00    -0.06  -0.06   0.00     0.00  -0.00  -0.00
  15   7     0.00   0.00   0.00    -0.32  -0.31  -0.00     0.00   0.00   0.00
  16   1    -0.00  -0.00   0.00     0.00  -0.36  -0.00    -0.00   0.00   0.00
  17   1     0.01   0.00  -0.00    -0.36   0.00  -0.00     0.00  -0.00  -0.00
                     34                     35                     36
                        a                      a                      a 
 Frequencies --  1466.1066              1490.5854              1547.4887
 Red. masses --     1.5670                 4.5388                11.9341
 Frc consts  --     0.0000                 0.0000                 0.0000
 IR Inten    --     3.4482                 1.7956                33.1871
 Raman Activ --     0.0000                 0.0000                 0.0000
 Depolar     --     0.0000                 0.0000                 0.0000
 Atom AN      X      Y      Z        X      Y      Z        X      Y      Z
   1   6     0.00   0.00  -0.22    -0.17  -0.13  -0.00    -0.16  -0.03  -0.00
   2   6    -0.00   0.00  -0.04     0.33  -0.25  -0.00     0.56   0.34   0.00
   3   6     0.00  -0.00  -0.00    -0.02   0.23   0.00    -0.42  -0.05  -0.00
   4   6     0.00   0.00   0.00    -0.14  -0.17  -0.00     0.33   0.21   0.00
   5   7     0.00  -0.00   0.00     0.01   0.04   0.00    -0.04  -0.07  -0.00
   6   7     0.00   0.00   0.01    -0.05   0.03   0.00    -0.27  -0.30  -0.00
   7   1    -0.00  -0.00   0.73     0.30  -0.16   0.00    -0.08   0.02   0.00
   8   1    -0.30  -0.34   0.08    -0.11   0.42  -0.29     0.01  -0.01   0.01
   9   1     0.30   0.34   0.08    -0.11   0.42   0.30     0.01  -0.00  -0.01
  10   1    -0.00  -0.00   0.00     0.06   0.05   0.00     0.08  -0.09  -0.00
  11   1    -0.00  -0.00  -0.00     0.02   0.07   0.00     0.01  -0.10  -0.00
  12   1    -0.00   0.00   0.00    -0.02   0.03   0.00     0.03  -0.07  -0.00
  13   6    -0.00  -0.00   0.00     0.00   0.00  -0.00    -0.00  -0.00  -0.00
  14   7    -0.00  -0.00  -0.00     0.00   0.00   0.00     0.00   0.00   0.00
  15   7     0.00   0.00   0.00    -0.00  -0.00  -0.00    -0.00  -0.00  -0.00
  16   1    -0.00   0.00  -0.00    -0.00  -0.00  -0.00     0.00   0.00   0.00
  17   1     0.00   0.00   0.00     0.00   0.00  -0.00    -0.00  -0.00   0.00
                     37                     38                     39
                        a                      a                      a 
 Frequencies --  2401.3335              3015.9078              3030.3703
 Red. masses --    13.8448                 1.9324                 1.4699
 Frc consts  --     0.0000                 0.0000                 0.0000
 IR Inten    --   670.1771                21.7317                19.5637
 Raman Activ --     0.0000                 0.0000                 0.0000
 Depolar     --     0.0000                 0.0000                 0.0000
 Atom AN      X      Y      Z        X      Y      Z        X      Y      Z
   1   6     0.00  -0.00  -0.00     0.01  -0.01   0.29     0.11  -0.17  -0.02
   2   6    -0.00   0.00   0.00     0.00  -0.00   0.01     0.01  -0.01  -0.00
   3   6     0.00   0.00   0.00    -0.00   0.00   0.00    -0.00   0.00  -0.00
   4   6     0.00  -0.00   0.00    -0.00   0.00  -0.00    -0.00   0.00   0.00
   5   7    -0.00  -0.00  -0.00     0.00  -0.00  -0.00     0.00  -0.00  -0.00
   6   7    -0.00   0.00   0.00    -0.00  -0.00  -0.00    -0.00  -0.00   0.00
   7   1     0.00   0.00  -0.00     0.00  -0.00   0.04     0.00  -0.05  -0.00
   8   1     0.00  -0.00   0.00     0.20  -0.34  -0.50    -0.21   0.35   0.61
   9   1     0.00  -0.00  -0.00    -0.22   0.38  -0.56    -0.18   0.31  -0.54
  10   1    -0.00  -0.00  -0.00    -0.00  -0.00   0.00    -0.00  -0.00  -0.00
  11   1    -0.00  -0.00   0.00     0.00  -0.00  -0.00     0.00  -0.00   0.00
  12   1     0.00   0.00   0.00     0.00   0.00   0.00     0.00   0.00   0.00
  13   6    -0.18  -0.18  -0.00     0.00   0.00  -0.00     0.00   0.00   0.00
  14   7     0.57   0.56   0.00    -0.00  -0.00   0.00    -0.00  -0.00  -0.00
  15   7    -0.39  -0.38  -0.00     0.00   0.00  -0.00     0.00   0.00   0.00
  16   1    -0.03  -0.01  -0.00    -0.00   0.00   0.00    -0.00   0.00  -0.00
  17   1    -0.02  -0.03  -0.00     0.00  -0.00  -0.00     0.00  -0.00  -0.00
                     40                     41                     42
                        a                      a                      a 
 Frequencies --  3044.5159              3113.2055              3144.1195
 Red. masses --     1.7391                 1.4384                 2.1372
 Frc consts  --     0.0000                 0.0000                 0.0000
 IR Inten    --    20.6917                 0.5723                 1.3394
 Raman Activ --     0.0000                 0.0000                 0.0000
 Depolar     --     0.0000                 0.0000                 0.0000
 Atom AN      X      Y      Z        X      Y      Z        X      Y      Z
   1   6    -0.10  -0.24  -0.00    -0.00   0.00   0.00    -0.00   0.00   0.00
   2   6    -0.00  -0.01  -0.00     0.00   0.00  -0.00     0.00   0.00   0.00
   3   6     0.00   0.00   0.00     0.00   0.00   0.00    -0.00   0.00   0.00
   4   6    -0.00  -0.00  -0.00    -0.00  -0.00   0.00     0.00  -0.00  -0.00
   5   7     0.00  -0.00  -0.00    -0.00  -0.00  -0.00    -0.00   0.00  -0.00
   6   7     0.00   0.00   0.00    -0.00  -0.00  -0.00     0.00  -0.00   0.00
   7   1     0.39   0.88   0.01     0.00   0.00   0.00    -0.00  -0.00  -0.00
   8   1    -0.02  -0.02   0.02     0.00  -0.00  -0.00     0.00  -0.00  -0.00
   9   1    -0.02  -0.02  -0.02     0.00  -0.00   0.00     0.00  -0.00   0.00
  10   1    -0.00  -0.01  -0.00    -0.00  -0.00   0.00    -0.00  -0.00   0.00
  11   1    -0.00   0.00   0.00     0.00  -0.00  -0.00    -0.00   0.00   0.00
  12   1    -0.00   0.00   0.00     0.01   0.01   0.00     0.00   0.00   0.00
  13   6     0.00   0.00   0.00     0.13   0.15   0.00     0.23  -0.22  -0.00
  14   7    -0.00  -0.00  -0.00     0.01   0.01   0.00     0.01  -0.01  -0.00
  15   7     0.00   0.00   0.00    -0.01  -0.01  -0.00     0.00  -0.00  -0.00
  16   1    -0.00   0.00  -0.00    -0.64   0.20  -0.00    -0.67   0.17  -0.00
  17   1    -0.00   0.00   0.00     0.20  -0.69  -0.00    -0.15   0.63   0.00
                     43                     44                     45
                        a                      a                      a 
 Frequencies --  3163.7986              3185.7772              3477.8309
 Red. masses --     1.8463                 1.9480                 1.8566
 Frc consts  --     0.0000                 0.0000                 0.0000
 IR Inten    --    17.6716                28.5190                40.6231
 Raman Activ --     0.0000                 0.0000                 0.0000
 Depolar     --     0.0000                 0.0000                 0.0000
 Atom AN      X      Y      Z        X      Y      Z        X      Y      Z
   1   6    -0.00  -0.00  -0.00     0.00   0.00   0.00    -0.00  -0.00   0.00
   2   6    -0.00  -0.00  -0.00     0.01  -0.00   0.00     0.00   0.01   0.00
   3   6    -0.02  -0.07  -0.00     0.10   0.26   0.00     0.01   0.00   0.00
   4   6    -0.23   0.13   0.00    -0.09   0.04   0.00    -0.01   0.00  -0.00
   5   7    -0.00  -0.00   0.00    -0.00  -0.00   0.00    -0.19  -0.17  -0.00
   6   7     0.00  -0.00   0.00     0.00  -0.00  -0.00    -0.01  -0.01  -0.00
   7   1     0.00   0.00   0.00    -0.01  -0.01  -0.00    -0.00   0.00   0.00
   8   1     0.00  -0.00  -0.00     0.00  -0.00  -0.00     0.00  -0.00  -0.00
   9   1     0.00  -0.00   0.00     0.00  -0.00   0.00     0.00  -0.00   0.00
  10   1     0.10   0.29   0.00    -0.30  -0.86  -0.00    -0.00  -0.00   0.00
  11   1     0.79  -0.46  -0.00     0.26  -0.15  -0.00     0.01  -0.00  -0.00
  12   1    -0.01  -0.01  -0.00    -0.01  -0.00  -0.00     0.74   0.63   0.01
  13   6     0.00  -0.00  -0.00     0.00  -0.00  -0.00    -0.00  -0.00  -0.00
  14   7     0.00   0.00   0.00    -0.00  -0.00  -0.00    -0.00  -0.00  -0.00
  15   7    -0.00  -0.00  -0.00     0.00   0.00  -0.00     0.00   0.00   0.00
  16   1    -0.00   0.00  -0.00    -0.00  -0.00  -0.00     0.01  -0.00   0.00
  17   1    -0.00   0.00   0.00    -0.00   0.00   0.00    -0.01   0.01   0.00
