17
Properties=species:S:1:pos:R:3 pbc="F F F"
C        2.20842000       0.02319000      -0.00219000
C        0.72727000       0.07185000      -0.00042000
C       -0.10716000       1.21297000      -0.00071000
C       -1.38756000       0.71582000       0.00024000
N       -1.26252000      -0.64167000       0.00095000
N        0.01291000      -1.06084000       0.00089000
H        2.63500000       1.03136000       0.00197000
H        2.57534000      -0.49563000      -0.89364000
H        2.57758000      -0.50372000       0.88346000
H        0.18849000       2.25236000      -0.00128000
H       -2.35538000       1.19571000      -0.00043000
H       -3.03311146      -2.40107161       0.00248089
C       -2.32038562      -1.64791030       0.00184232
N       -4.63899519      -3.85336849       0.00379811
N       -5.43601723      -4.61149475       0.00447041
H       -1.34344762      -2.13724989       0.00172301
H       -2.76027567      -0.64773145       0.00150863
