      -----------------------------------------------------------      
     |                   =====================                   |     
     |                           x T B                           |     
     |                   =====================                   |     
     |                         S. Grimme                         |     
     |          Mulliken Center for Theoretical Chemistry        |     
     |                    University of Bonn                     |     
      -----------------------------------------------------------      

   * xtb version 6.7.1 (edcfbbe) compiled by 'conda@3ef47c1a292c' on 2024-11-25

   xtb is free software: you can redistribute it and/or modify it under
   the terms of the GNU Lesser General Public License as published by
   the Free Software Foundation, either version 3 of the License, or
   (at your option) any later version.
   
   xtb is distributed in the hope that it will be useful,
   but WITHOUT ANY WARRANTY; without even the implied warranty of
   MERCHANTABILITY or FITNESS FOR A PARTICULAR PURPOSE.  See the
   GNU Lesser General Public License for more details.
   
   Cite this work as:
   * C. Bannwarth, E. Caldeweyher, S. Ehlert, A. Hansen, P. Pracht,
     J. Seibert, S. Spicher, S. Grimme, WIREs Comput. Mol. Sci., 2020, 11,
     e01493. DOI: 10.1002/wcms.1493
   
   for GFN2-xTB:
   * C. Bannwarth, S. Ehlert and S. Grimme., J. Chem. Theory Comput., 2019,
     15, 1652-1671. DOI: 10.1021/acs.jctc.8b01176
   for GFN1-xTB:
   * S. Grimme, C. Bannwarth, P. Shushkov, J. Chem. Theory Comput., 2017,
     13, 1989-2009. DOI: 10.1021/acs.jctc.7b00118
   for GFN0-xTB:
   * P. Pracht, E. Caldeweyher, S. Ehlert, S. Grimme, ChemRxiv, 2019, preprint.
     DOI: 10.26434/chemrxiv.8326202.v1
   for GFN-FF:
   * S. Spicher and S. Grimme, Angew. Chem. Int. Ed., 2020, 59, 15665-15673.
     DOI: 10.1002/anie.202004239
   
   for ALPB and GBSA implicit solvation:
   * S. Ehlert, M. Stahn, S. Spicher, S. Grimme, J. Chem. Theory Comput.,
     2021, 17, 4250-4261. DOI: 10.1021/acs.jctc.1c00471
   
   for ddCOSMO and CPCM-X implicit solvation:
   * M. Stahn, S. Ehlert, S. Grimme, J. Phys. Chem. A,
     2023, XX, XXXX-XXXX. DOI: 10.1021/acs.jpca.3c04382
   
   for DFT-D4:
   * E. Caldeweyher, C. Bannwarth and S. Grimme, J. Chem. Phys., 2017,
     147, 034112. DOI: 10.1063/1.4993215
   * E. Caldeweyher, S. Ehlert, A. Hansen, H. Neugebauer, S. Spicher,
     C. Bannwarth and S. Grimme, J. Chem. Phys., 2019, 150, 154122.
     DOI: 10.1063/1.5090222
   * E. Caldeweyher, J.-M. Mewes, S. Ehlert and S. Grimme, Phys. Chem. Chem. Phys.
     2020, 22, 8499-8512. DOI: 10.1039/D0CP00502A
   
   for sTDA-xTB:
   * S. Grimme and C. Bannwarth, J. Chem. Phys., 2016, 145, 054103.
     DOI: 10.1063/1.4959605
   
   in the mass-spec context:
   * V. Asgeirsson, C. Bauer and S. Grimme, Chem. Sci., 2017, 8, 4879.
     DOI: 10.1039/c7sc00601b
   * J. Koopman and S. Grimme, ACS Omega 2019, 4, 12, 15120-15133.
     DOI: 10.1021/acsomega.9b02011
   
   for metadynamics refer to:
   * S. Grimme, J. Chem. Theory Comput., 2019, 155, 2847-2862
     DOI: 10.1021/acs.jctc.9b00143
   
   for SPH calculations refer to:
   * S. Spicher and S. Grimme, J. Chem. Theory Comput., 2021, 17, 1701-1714
     DOI: 10.1021/acs.jctc.0c01306
   
   for ONIOM refer to:
   * C. Plett, A. Katbashev, S. Ehlert, S. Grimme, M. Bursch,
     Phys. Chem. Chem. Phys., 2023, 25, 17860-17868. DOI: 10.1039/D3CP02178E
   
   for DIPRO refer to:
   * J. Kohn, N. Gildemeister, S. Grimme, D. Fazzi, A. Hansen,
     J. Chem. Phys., 2023, just accepted.
   
   for PTB refer to:
   * S. Grimme, M. Mueller, A. Hansen, J. Chem. Phys., 2023, 158, 124111.
     DOI: 10.1063/5.0137838
   
   with help from (in alphabetical order)
   P. Atkinson, C. Bannwarth, F. Bohle, G. Brandenburg, E. Caldeweyher
   M. Checinski, S. Dohm, S. Ehlert, S. Ehrlich, I. Gerasimov, C. Hölzer
   A. Katbashev, J. Kohn, J. Koopman, C. Lavigne, S. Lehtola, F. März, M. Müller,
   F. Musil, H. Neugebauer, J. Pisarek, C. Plett, P. Pracht, F. Pultar,
   J. Seibert, P. Shushkov, S. Spicher, M. Stahn, M. Steiner, T. Strunk,
   J. Stückrath, T. Rose, and J. Unsleber
   
 * started run on 2026/08/20 at 02:30:11.186     
   ID    Z sym.   atoms
    1    6 C      1-4, 13
    2    7 N      5, 6, 14, 15
    3    1 H      7-12, 16, 17

           -------------------------------------------------
          |                Calculation Setup                |
           -------------------------------------------------

          program call               : xtb product_in.xyz --gfn 2 --opt crude
          coordinate file            : product_in.xyz
          omp threads                :                    16


molecular fragmentation (1/2 indicates fragments):
11111111111112211
# atoms in fragment 1/2:    15     2
 fragment masses (1/2) :       96.13       28.01
CMA distance (Bohr)    :  11.722
constraining FC (au)   :  0.0500

           -------------------------------------------------
          |                 G F N 2 - x T B                 |
           -------------------------------------------------

        Reference                      10.1021/acs.jctc.8b01176
      * Hamiltonian:
        H0-scaling (s, p, d)           1.850000    2.230000    2.230000
        zeta-weighting                 0.500000
      * Dispersion:
        s8                             2.700000
        a1                             0.520000
        a2                             5.000000
        s9                             5.000000
      * Repulsion:
        kExp                           1.500000    1.000000
        rExp                           1.000000
      * Coulomb:
        alpha                          2.000000
        third order                    shell-resolved
        anisotropic                    true
        a3                             3.000000
        a5                             4.000000
        cn-shift                       1.200000
        cn-exp                         4.000000
        max-rad                        5.000000

q/qsh data taken from xtbrestart
CAMM data taken from xtbrestart

          ...................................................
          :                      SETUP                      :
          :.................................................:
          :  # basis functions                  44          :
          :  # atomic orbitals                  44          :
          :  # shells                           26          :
          :  # electrons                        48          :
          :  max. iterations                   250          :
          :  Hamiltonian                  GFN2-xTB          :
          :  restarted?                       true          :
          :  GBSA solvation                  false          :
          :  PC potential                    false          :
          :  electronic temp.          300.0000000     K    :
          :  accuracy                    1.0000000          :
          :  -> integral cutoff          0.2500000E+02      :
          :  -> integral neglect         0.1000000E-07      :
          :  -> SCF convergence          0.1000000E-05 Eh   :
          :  -> wf. convergence          0.1000000E-03 e    :
          :  Broyden damping             0.4000000          :
          :  net charge                          0          :
          :  unpaired electrons                  0          :
          ...................................................

 iter      E             dE          RMSdq      gap      omega  full diag
   1    -26.3750372 -0.263750E+02  0.430E+00    0.34       0.0  T
   2    -25.3275056  0.104753E+01  0.674E+00    0.19       1.0  T
   3    -26.4851568 -0.115765E+01  0.307E+00    2.61       1.0  T
   4    -26.5133291 -0.281723E-01  0.215E+00    2.45       1.0  T
   5    -26.5152059 -0.187672E-02  0.152E+00    2.33       1.0  T
   6    -26.5207172 -0.551131E-02  0.113E+00    2.24       1.0  T
   7    -26.5219142 -0.119698E-02  0.968E-01    2.15       1.0  T
   8    -26.5239555 -0.204137E-02  0.659E-01    1.26       1.0  T
   9    -26.5226634  0.129209E-02  0.515E-01    0.12       1.0  T
  10    -26.5270825 -0.441909E-02  0.150E-01    0.17       1.0  T
  11    -25.4359430  0.109114E+01  0.689E+00    0.00       1.0  T
  12    -26.5253712 -0.108943E+01  0.319E-01    0.34       1.0  T
  13    -26.5260578 -0.686558E-03  0.243E-01    0.26       1.0  T
  14    -26.5262605 -0.202736E-03  0.218E-01    0.25       1.0  T
  15    -26.5265017 -0.241220E-03  0.187E-01    0.23       1.0  T
  16    -26.5266270 -0.125292E-03  0.167E-01    0.23       1.0  T
  17    -26.5271015 -0.474461E-03  0.687E-02    0.20       1.0  T
  18    -26.5271821 -0.805787E-04  0.291E-02    0.18       1.0  T
  19    -26.5271982 -0.160954E-04  0.878E-03    0.19       2.8  T
  20    -26.5271993 -0.113037E-05  0.495E-03    0.18       4.9  T
  21    -26.5271994 -0.904329E-07  0.441E-03    0.18       5.5  T
  22    -26.5271998 -0.409942E-06  0.251E-04    0.18      96.7  T
  23    -26.5271998  0.638950E-08  0.597E-04    0.18      40.6  T

   *** convergence criteria satisfied after 23 iterations ***

         #    Occupation            Energy/Eh            Energy/eV
      -------------------------------------------------------------
         1        2.0000           -0.7082855             -19.2734
       ...           ...                  ...                  ...
        18        2.0000           -0.4458523             -12.1323
        19        2.0000           -0.4432951             -12.0627
        20        2.0000           -0.4318264             -11.7506
        21        2.0000           -0.3982960             -10.8382
        22        2.0000           -0.3912571             -10.6466
        23        2.0000           -0.3854508             -10.4886
        24        1.9255           -0.2997466              -8.1565 (HOMO)
        25        0.0400           -0.2929601              -7.9719 (LUMO)
        26        0.0345           -0.2928165              -7.9679
        27                         -0.2258355              -6.1453
        28                         -0.1899617              -5.1691
        29                         -0.1432611              -3.8983
       ...                                ...                  ...
        44                          0.7897446              21.4900
      -------------------------------------------------------------
                  HL-Gap            0.0067865 Eh            0.1847 eV
             Fermi-level           -0.2966571 Eh           -8.0725 eV

 SCC (total)                   0 d,  0 h,  0 min, 10.021 sec
 SCC setup                      ...        0 min,  0.079 sec (  0.784%)
 Dispersion                     ...        0 min,  0.166 sec (  1.656%)
 classical contributions        ...        0 min,  0.084 sec (  0.834%)
 integral evaluation            ...        0 min,  0.187 sec (  1.870%)
 iterations                     ...        0 min,  8.816 sec ( 87.971%)
 molecular gradient             ...        0 min,  0.690 sec (  6.884%)
 printout                       ...        0 min,  0.000 sec (  0.002%)

         :::::::::::::::::::::::::::::::::::::::::::::::::::::
         ::                     SUMMARY                     ::
         :::::::::::::::::::::::::::::::::::::::::::::::::::::
         :: total energy             -26.143450166180 Eh    ::
         :: gradient norm              0.099816346180 Eh/a0 ::
         :: HOMO-LUMO gap              0.184669728125 eV    ::
         ::.................................................::
         :: SCC energy               -26.527258152944 Eh    ::
         :: -> isotropic ES            0.025977082566 Eh    ::
         :: -> anisotropic ES         -0.004886401631 Eh    ::
         :: -> anisotropic XC          0.043514619801 Eh    ::
         :: -> dispersion             -0.010622714032 Eh    ::
         :: repulsion energy           0.383807986764 Eh    ::
         :: add. restraining           0.000000000000 Eh    ::
         :: total charge               0.000000000004 e     ::
         :::::::::::::::::::::::::::::::::::::::::::::::::::::

      ----------------------------------------------------------- 
     |                   =====================                   |
     |                        A N C O P T                        |
     |                   =====================                   |
     |               Approximate Normal Coordinate               |
     |                Rational Function Optimizer                |
      ----------------------------------------------------------- 
      ----------------------------------------------------------- 
     |                   =====================                   |
     |                        A N C O P T                        |
     |                   =====================                   |
     |               Approximate Normal Coordinate               |
     |                Rational Function Optimizer                |
      ----------------------------------------------------------- 

          ...................................................
          :                      SETUP                      :
          :.................................................:
          :   optimization level             crude          :
          :   max. optcycles                   200          :
          :   ANC micro-cycles                  20          :
          :   degrees of freedom                45          :
          :.................................................:
          :   RF solver                   davidson          :
          :   write xtbopt.log                true          :
          :   linear?                        false          :
          :   energy convergence         0.5000000E-03 Eh   :
          :   grad. convergence          0.1000000E-01 Eh/α :
          :   maxmium RF displ.          1.0000000          :
          :   Hlow (freq-cutoff)         0.1000000E-01      :
          :   Hmax (freq-cutoff)         5.0000000          :
          :   S6 in model hess.         20.0000000          :
          ...................................................

generating ANC from exact Hessian ...
Using Lindh-Hessian (1995)
 Shifting diagonal of input Hessian by    9.8265616003984368E-003
 Lowest  eigenvalues of input Hessian
    0.000000    0.000000    0.000000    0.000000    0.000000    0.000000
    0.010000    0.010021    0.010200    0.010218    0.012375    0.013042
    0.016974    0.018938    0.024459    0.026673    0.027358    0.050377
 Highest eigenvalues
    1.687429    1.823025    1.896633    2.110088    2.165595    2.405022


........................................................................
.............................. CYCLE    1 ..............................
........................................................................

 iter      E             dE          RMSdq      gap      omega  full diag
   1    -26.5271998 -0.265272E+02  0.103E-04    0.18       0.0  T
   2    -26.5271998  0.132370E-07  0.799E-04    0.18      30.3  T
   3    -26.5271998 -0.134310E-07  0.242E-05    0.18    1001.9  T
     SCC iter.                  ...        0 min,  1.686 sec
     gradient                   ...        0 min,  0.517 sec
 * total energy  :   -26.1434502 Eh     change       -0.7457150E-08 Eh
   gradient norm :     0.0998036 Eh/α   predicted     0.0000000E+00 (-100.00%)
   displ. norm   :     0.2762341 α      lambda       -0.1863667E-01
   maximum displ.:     0.1340552 α      in ANC's #14, #28, #20, ...

........................................................................
.............................. CYCLE    2 ..............................
........................................................................

 iter      E             dE          RMSdq      gap      omega  full diag
   1    -26.4882521 -0.264883E+02  0.157E+00    0.08       0.0  T
   2    -26.5222857 -0.340336E-01  0.126E+00    2.06       1.0  T
   3    -26.5351246 -0.128388E-01  0.717E-01    1.50       1.0  T
   4    -26.5357281 -0.603488E-03  0.611E-01    1.06       1.0  T
   5    -26.5366745 -0.946474E-03  0.452E-01    0.55       1.0  T
   6    -25.5208450  0.101583E+01  0.662E+00    0.00       1.0  T
   7    -26.5361370 -0.101529E+01  0.554E-01    0.90       1.0  T
   8    -26.5362055 -0.685305E-04  0.538E-01    0.84       1.0  T
   9    -26.5363496 -0.144087E-03  0.508E-01    0.74       1.0  T
  10    -26.5364761 -0.126505E-03  0.480E-01    0.65       1.0  T
  11    -26.5365772 -0.101110E-03  0.458E-01    0.58       1.0  T
  12    -26.5368812 -0.303949E-03  0.402E-01    0.41       1.0  T
  13    -26.5378836 -0.100248E-02  0.300E-01    0.27       1.0  T
  14    -26.5375967  0.286991E-03  0.327E-01    0.29       1.0  T
  15    -26.3849510  0.152646E+00  0.264E+00    0.05       1.0  T
  16    -26.5355973 -0.150646E+00  0.650E-01    1.22       1.0  T
  17    -26.5361369 -0.539595E-03  0.551E-01    0.89       1.0  T
  18    -26.5365909 -0.453984E-03  0.456E-01    0.57       1.0  T
  19    -26.5388361 -0.224522E-02  0.201E-01    0.22       1.0  T
  20    -26.1797184  0.359118E+00  0.399E+00    0.02       1.0  T
  21    -26.5267740 -0.347056E+00  0.139E+00    2.04       1.0  T
  22    -26.5358559 -0.908195E-02  0.618E-01    1.07       1.0  T
  23    -26.5356592  0.196688E-03  0.646E-01    1.17       1.0  T
  24    -26.5362076 -0.548348E-03  0.542E-01    0.83       1.0  T
  25    -26.5373663 -0.115879E-02  0.351E-01    0.31       1.0  T
  26    -25.5796992  0.957667E+00  0.643E+00    0.00       1.0  T
  27    -25.1646556  0.415044E+00  0.588E+00    1.17       1.0  T
  28    -25.1966532 -0.319976E-01  0.579E+00    1.19       1.0  T
  29    -25.2960864 -0.994332E-01  0.554E+00    1.11       1.0  T
  30    -26.4259953 -0.112991E+01  0.254E+00    0.90       1.0  T
  31    -26.5230900 -0.970947E-01  0.167E+00    2.14       1.0  T
  32    -26.5343745 -0.112845E-01  0.924E-01    1.63       1.0  T
  33    -26.5361059 -0.173142E-02  0.649E-01    0.68       1.0  T
  34    -25.5332696  0.100284E+01  0.646E+00    0.00       1.0  T
  35    -25.0760618  0.457208E+00  0.623E+00    1.06       1.0  T
  36    -26.5325156 -0.145645E+01  0.122E+00    1.94       1.0  T
  37    -26.5360087 -0.349304E-02  0.768E-01    0.50       1.0  T
  38    -25.4584912  0.107752E+01  0.674E+00    0.01       1.0  T
  39    -25.0683738  0.390117E+00  0.628E+00    1.04       1.0  T
  40    -26.5295509 -0.146118E+01  0.156E+00    2.05       1.0  T
  41    -25.4761587  0.105339E+01  0.646E+00    0.00       1.0  T
  42    -25.3811916  0.949671E-01  0.542E+00    0.94       1.0  T
  43    -26.5317043 -0.115051E+01  0.147E+00    1.87       1.0  T
  44    -25.4666447  0.106506E+01  0.651E+00    0.01       1.0  T
  45    -25.2618455  0.204799E+00  0.572E+00    1.14       1.0  T
  46    -26.5288560 -0.126701E+01  0.176E+00    2.09       1.0  T
  47    -25.4825538  0.104630E+01  0.627E+00    0.00       1.0  T
  48    -26.5157833 -0.103323E+01  0.238E+00    2.36       1.0  T
  49    -26.5320155 -0.162322E-01  0.154E+00    1.52       1.0  T
  50    -26.5347899 -0.277437E-02  0.123E+00    0.38       1.0  T
  51    -25.4850854  0.104970E+01  0.622E+00    0.01       1.0  T
  52    -26.4725421 -0.987457E+00  0.282E+00    1.19       1.0  T
  53    -26.5231983 -0.506563E-01  0.210E+00    2.24       1.0  T
  54    -26.5291076 -0.590928E-02  0.177E+00    2.10       1.0  T
  55    -26.5338575 -0.474986E-02  0.133E+00    0.94       1.0  T
  56    -25.9397444  0.594113E+00  0.460E+00    0.00       1.0  T
  57    -26.5169283 -0.577184E+00  0.230E+00    2.33       1.0  T
  58    -26.5333038 -0.163755E-01  0.137E+00    1.29       1.0  T
  59    -26.5358864 -0.258261E-02  0.105E+00    0.31       1.0  T
  60    -25.4716354  0.106425E+01  0.640E+00    0.00       1.0  T
  61    -25.5825746 -0.110939E+00  0.505E+00    0.80       1.0  T
  62    -26.5317986 -0.949224E+00  0.153E+00    1.69       1.0  T
  63    -25.8276710  0.704128E+00  0.505E+00    0.00       1.0  T
  64    -26.5207509 -0.693080E+00  0.223E+00    2.28       1.0  T
  65    -26.5340538 -0.133028E-01  0.130E+00    0.97       1.0  T
  66    -26.5354351 -0.138130E-02  0.108E+00    0.39       1.0  T
  67    -25.5007896  0.103465E+01  0.623E+00    0.00       1.0  T
  68    -26.0669646 -0.566175E+00  0.398E+00    0.68       1.0  T
  69    -26.5266066 -0.459642E+00  0.191E+00    2.16       1.0  T
  70    -26.5328861 -0.627944E-02  0.140E+00    1.58       1.0  T
  71    -26.5347333 -0.184723E-02  0.115E+00    0.80       1.0  T
  72    -26.5362289 -0.149564E-02  0.952E-01    0.31       1.0  T
  73    -26.0642187  0.472010E+00  0.415E+00    0.01       1.0  T
  74    -26.5125112 -0.448293E+00  0.237E+00    2.03       1.0  T
  75    -26.5331158 -0.206045E-01  0.133E+00    1.63       1.0  T
  76    -26.5344061 -0.129037E-02  0.115E+00    1.11       1.0  T
  77    -26.5349269 -0.520770E-03  0.107E+00    0.88       1.0  T
  78    -26.5352400 -0.313136E-03  0.101E+00    0.75       1.0  T
  79    -26.5354272 -0.187142E-03  0.965E-01    0.68       1.0  T
  80    -26.5355189 -0.916593E-04  0.940E-01    0.66       1.0  T
  81    -26.5355684 -0.495904E-04  0.918E-01    0.68       1.0  T
  82    -26.5356035 -0.350620E-04  0.882E-01    0.76       1.0  T
  83    -26.5357070 -0.103475E-03  0.809E-01    0.85       1.0  T
  84    -26.5360462 -0.339222E-03  0.680E-01    0.79       1.0  T
  85    -26.5365786 -0.532405E-03  0.512E-01    0.53       1.0  T
  86    -26.5395961 -0.301751E-02  0.706E-02    0.19       1.0  T
  87    -26.4931274  0.464687E-01  0.145E+00    0.08       1.0  T
  88    -26.5348861 -0.417586E-01  0.814E-01    1.50       1.0  T
  89    -26.5362870 -0.140092E-02  0.497E-01    0.82       1.0  T
  90    -26.5369573 -0.670282E-03  0.344E-01    0.40       1.0  T
  91    -26.4683979  0.685594E-01  0.187E+00    0.07       1.0  T
  92    -26.5337348 -0.653369E-01  0.979E-01    1.88       1.0  T
  93    -26.5360685 -0.233373E-02  0.537E-01    0.98       1.0  T
  94    -26.5367398 -0.671264E-03  0.375E-01    0.52       1.0  T
  95    -26.5395911 -0.285137E-02  0.138E-01    0.17       1.0  T
  96    -26.5394323  0.158803E-03  0.800E-02    0.20       1.0  T
  97    -26.5162717  0.231606E-01  0.108E+00    0.10       1.0  T
  98    -26.5354964 -0.192247E-01  0.682E-01    1.25       1.0  T
  99    -26.5365265 -0.103004E-02  0.441E-01    0.65       1.0  T
 100    -26.5381722 -0.164574E-02  0.233E-01    0.25       1.0  T
 101    -25.7646380  0.773534E+00  0.583E+00    0.00       1.0  T
 102    -26.1005664 -0.335928E+00  0.384E+00    0.69       1.0  T
 103    -26.5157267 -0.415160E+00  0.220E+00    2.12       1.0  T
 104    -26.5329539 -0.172272E-01  0.102E+00    1.89       1.0  T
 105    -26.5354957 -0.254178E-02  0.679E-01    1.25       1.0  T
 106    -26.5382986 -0.280284E-02  0.314E-01    0.24       1.0  T
 107    -25.4612068  0.107709E+01  0.679E+00    0.00       1.0  T
 108    -25.2750489  0.186158E+00  0.582E+00    1.17       1.0  T
 109    -26.5213579 -0.124631E+01  0.267E+00    2.33       1.0  T
 110    -25.4740373  0.104732E+01  0.635E+00    0.00       1.0  T
 111    -25.5176025 -0.435652E-01  0.555E+00    0.85       1.0  T
 112    -26.5320550 -0.101445E+01  0.154E+00    1.93       1.0  T
 113    -25.5149133  0.101714E+01  0.603E+00    0.00       1.0  T
 114    -25.8195544 -0.304641E+00  0.512E+00    0.71       1.0  T
 115    -26.5338203 -0.714266E+00  0.132E+00    1.33       1.0  T
 116    -25.4846015  0.104922E+01  0.609E+00    0.00       1.0  T
 117    -25.5560489 -0.714474E-01  0.545E+00    0.82       1.0  T
 118    -26.5310578 -0.975009E+00  0.186E+00    1.24       1.0  T
 119    -25.4796831  0.105137E+01  0.605E+00    0.00       1.0  T
 120    -26.4145243 -0.934841E+00  0.411E+00    1.00       1.0  T
 121    -26.5346271 -0.120103E+00  0.137E+00    0.42       1.0  T
 122    -26.5382015 -0.357439E-02  0.910E-01    0.20       1.0  T
 123    -25.4795690  0.105863E+01  0.633E+00    0.00       1.0  T
 124    -25.6521633 -0.172594E+00  0.514E+00    0.77       1.0  T
 125    -26.5266605 -0.874497E+00  0.217E+00    2.18       1.0  T
 126    -25.9798305  0.546830E+00  0.442E+00    0.01       1.0  T
 127    -26.5091381 -0.529308E+00  0.284E+00    2.18       1.0  T
 128    -26.5345373 -0.253992E-01  0.121E+00    0.93       1.0  T
 129    -26.5230734  0.114639E-01  0.630E-01    0.10       1.0  T
 130    -26.5353810 -0.123076E-01  0.956E-01    0.78       1.0  T
 131    -25.6089374  0.926444E+00  0.610E+00    0.00       1.0  T
 132    -26.1837628 -0.574825E+00  0.386E+00    0.71       1.0  T
 133    -26.5233975 -0.339635E+00  0.185E+00    2.17       1.0  T
 134    -26.5341930 -0.107956E-01  0.983E-01    1.71       1.0  T
 135    -26.5365931 -0.240007E-02  0.575E-01    0.43       1.0  T
 136    -25.4644332  0.107216E+01  0.673E+00    0.00       1.0  T
 137    -25.5576176 -0.931844E-01  0.523E+00    0.83       1.0  T
 138    -26.5258042 -0.968187E+00  0.220E+00    2.20       1.0  T
 139    -26.5392278 -0.134237E-01  0.522E-01    0.19       1.0  T
 140    -25.4645379  0.107469E+01  0.663E+00    0.00       1.0  T
 141    -25.8396636 -0.375126E+00  0.465E+00    0.71       1.0  T
 142    -26.5255421 -0.685878E+00  0.201E+00    2.18       1.0  T
 143    -26.5356632 -0.101211E-01  0.895E-01    0.71       1.0  T
 144    -25.4710270  0.106464E+01  0.655E+00    0.00       1.0  T
 145    -26.2293333 -0.758306E+00  0.403E+00    0.73       1.0  T
 146    -26.5297703 -0.300437E+00  0.147E+00    2.03       1.0  T
 147    -26.5349282 -0.515791E-02  0.929E-01    1.30       1.0  T
 148    -26.5379891 -0.306092E-02  0.247E-01    0.14       1.0  T
 149    -25.8907019  0.647287E+00  0.502E+00    0.00       1.0  T
 150    -26.4873617 -0.596660E+00  0.273E+00    1.37       1.0  T
 151    -26.5320209 -0.446593E-01  0.126E+00    1.96       1.0  T
 152    -26.5356917 -0.367073E-02  0.779E-01    0.93       1.0  T
 153    -26.5201322  0.155595E-01  0.809E-01    0.10       1.0  T
 154    -26.5355806 -0.154484E-01  0.851E-01    0.86       1.0  T
 155    -26.0357274  0.499853E+00  0.455E+00    0.01       1.0  T
 156    -26.5044788 -0.468751E+00  0.245E+00    1.70       1.0  T
 157    -26.5330469 -0.285681E-01  0.107E+00    1.91       1.0  T
 158    -26.5358638 -0.281689E-02  0.646E-01    1.00       1.0  T
 159    -26.5374606 -0.159681E-02  0.372E-01    0.30       1.0  T
 160    -25.4723591  0.106510E+01  0.677E+00    0.00       1.0  T
 161    -25.2769019  0.195457E+00  0.576E+00    1.18       1.0  T
 162    -26.5266749 -0.124977E+01  0.230E+00    1.99       1.0  T
 163    -25.4711016  0.105557E+01  0.645E+00    0.00       1.0  T
 164    -25.8247503 -0.353649E+00  0.484E+00    0.72       1.0  T
 165    -26.5286893 -0.703939E+00  0.179E+00    2.10       1.0  T
 166    -26.5356104 -0.692109E-02  0.975E-01    0.55       1.0  T
 167    -25.4710285  0.106458E+01  0.649E+00    0.00       1.0  T
 168    -25.9179989 -0.446970E+00  0.462E+00    0.70       1.0  T
 169    -26.5288451 -0.610846E+00  0.175E+00    2.09       1.0  T
 170    -26.5358187 -0.697356E-02  0.950E-01    0.43       1.0  T
 171    -25.4680493  0.106777E+01  0.652E+00    0.00       1.0  T
 172    -26.1304067 -0.662357E+00  0.418E+00    0.70       1.0  T
 173    -26.5285485 -0.398142E+00  0.166E+00    2.08       1.0  T
 174    -26.5355397 -0.699127E-02  0.910E-01    0.77       1.0  T
 175    -25.4744667  0.106107E+01  0.651E+00    0.00       1.0  T
 176    -25.8439250 -0.369458E+00  0.478E+00    0.71       1.0  T
 177    -26.5303813 -0.686456E+00  0.165E+00    2.05       1.0  T
 178    -26.5389590 -0.857769E-02  0.687E-01    0.18       1.0  T
 179    -25.4718334  0.106713E+01  0.643E+00    0.00       1.0  T
 180    -26.1060315 -0.634198E+00  0.411E+00    0.69       1.0  T
 181    -26.5277633 -0.421732E+00  0.177E+00    2.11       1.0  T
 182    -26.5355717 -0.780843E-02  0.958E-01    0.60       1.0  T
 183    -25.4717806  0.106379E+01  0.650E+00    0.00       1.0  T
 184    -25.9497696 -0.477989E+00  0.458E+00    0.69       1.0  T
 185    -26.5303004 -0.580531E+00  0.162E+00    2.05       1.0  T
 186    -26.5362821 -0.598171E-02  0.902E-01    0.33       1.0  T
 187    -25.4677348  0.106855E+01  0.652E+00    0.00       1.0  T
 188    -26.2175998 -0.749865E+00  0.394E+00    0.72       1.0  T
 189    -26.5289517 -0.311352E+00  0.160E+00    2.07       1.0  T
 190    -26.5355170 -0.656531E-02  0.890E-01    0.84       1.0  T
 191    -25.5227710  0.101275E+01  0.636E+00    0.00       1.0  T
 192    -25.8610895 -0.338318E+00  0.472E+00    0.70       1.0  T
 193    -26.5312396 -0.670150E+00  0.157E+00    2.02       1.0  T
 194    -26.5387686 -0.752906E-02  0.570E-01    0.16       1.0  T
 195    -25.4869647  0.105180E+01  0.632E+00    0.00       1.0  T
 196    -25.8973178 -0.410353E+00  0.455E+00    0.69       1.0  T
 197    -26.5297542 -0.632436E+00  0.177E+00    2.08       1.0  T
 198    -26.4039353  0.125819E+00  0.201E+00    0.05       1.0  T
 199    -26.5291896 -0.125254E+00  0.184E+00    2.10       1.0  T
 200    -26.5382801 -0.909056E-02  0.834E-01    0.20       1.0  T
 201    -25.4743578  0.106392E+01  0.642E+00    0.00       1.0  T
 202    -25.8468593 -0.372501E+00  0.462E+00    0.70       1.0  T
 203    -26.5278423 -0.680983E+00  0.194E+00    2.14       1.0  T
 204    -26.5265934  0.124890E-02  0.552E-01    0.11       1.0  T
 205    -26.5353556 -0.876214E-02  0.104E+00    0.59       1.0  T
 206    -25.4751846  0.106017E+01  0.647E+00    0.00       1.0  T
 207    -25.8446310 -0.369446E+00  0.465E+00    0.70       1.0  T
 208    -26.5290417 -0.684411E+00  0.182E+00    2.10       1.0  T
 209    -26.5391007 -0.100590E-01  0.609E-01    0.17       1.0  T
 210    -25.4792752  0.105983E+01  0.641E+00    0.00       1.0  T
 211    -25.9772481 -0.497973E+00  0.432E+00    0.68       1.0  T
 212    -26.5283417 -0.551094E+00  0.181E+00    2.11       1.0  T
 213    -26.5357602 -0.741847E-02  0.949E-01    0.45       1.0  T
 214    -25.4730175  0.106274E+01  0.649E+00    0.00       1.0  T
 215    -26.0110568 -0.538039E+00  0.437E+00    0.69       1.0  T
 216    -26.5296266 -0.518570E+00  0.166E+00    2.07       1.0  T
 217    -26.5357142 -0.608759E-02  0.926E-01    0.54       1.0  T
 218    -25.4755188  0.106020E+01  0.648E+00    0.00       1.0  T
 219    -26.0178828 -0.542364E+00  0.436E+00    0.69       1.0  T
 220    -26.5303174 -0.512435E+00  0.160E+00    2.04       1.0  T
 221    -26.5357361 -0.541877E-02  0.931E-01    0.50       1.0  T
 222    -25.4747769  0.106096E+01  0.647E+00    0.00       1.0  T
 223    -26.0655679 -0.590791E+00  0.425E+00    0.69       1.0  T
 224    -26.5301112 -0.464543E+00  0.160E+00    2.05       1.0  T
 225    -26.5356679 -0.555668E-02  0.932E-01    0.56       1.0  T
 226    -25.4775910  0.105808E+01  0.646E+00    0.00       1.0  T
 227    -26.0018661 -0.524275E+00  0.439E+00    0.69       1.0  T
 228    -26.5306892 -0.528823E+00  0.158E+00    2.03       1.0  T
 229    -26.5358481 -0.515892E-02  0.933E-01    0.43       1.0  T
 230    -25.4734949  0.106235E+01  0.647E+00    0.00       1.0  T
 231    -26.1254670 -0.651972E+00  0.411E+00    0.69       1.0  T
 232    -26.5297239 -0.404257E+00  0.160E+00    2.06       1.0  T
 233    -26.5355785 -0.585455E-02  0.927E-01    0.66       1.0  T
 234    -25.5050515  0.103053E+01  0.638E+00    0.00       1.0  T
 235    -25.9820626 -0.477011E+00  0.443E+00    0.69       1.0  T
 236    -26.5312366 -0.549174E+00  0.154E+00    2.02       1.0  T
 237    -26.5359800 -0.474339E-02  0.930E-01    0.38       1.0  T
 238    -25.4733148  0.106267E+01  0.647E+00    0.00       1.0  T
 239    -26.1591182 -0.685803E+00  0.400E+00    0.70       1.0  T
 240    -26.5292248 -0.370107E+00  0.163E+00    2.07       1.0  T
 241    -26.5355057 -0.628097E-02  0.927E-01    0.74       1.0  T
 242    -25.6668253  0.868680E+00  0.586E+00    0.00       1.0  T
 243    -26.3536552 -0.686830E+00  0.351E+00    0.81       1.0  T
 244    -26.5303581 -0.176703E+00  0.145E+00    2.02       1.0  T
 245    -26.5353708 -0.501265E-02  0.881E-01    0.99       1.0  T
 246    -26.5391909 -0.382014E-02  0.224E-01    0.16       1.0  T
 247    -26.3574359  0.181755E+00  0.266E+00    0.04       1.0  T
 248    -26.5303627 -0.172927E+00  0.145E+00    2.02       1.0  T
 249    -26.5356504 -0.528773E-02  0.773E-01    0.95       1.0  T
 250    -26.5390277 -0.337724E-02  0.306E-01    0.21       1.0  T
     SCC iter.                  ...        5 min, 33.198 sec
     gradient                   ...        0 min,  0.458 sec
================
 final structure:
================
17
 xtb: 6.7.1 (edcfbbe)
C            2.20842000000000        0.02319000000000       -0.00219000000000
C            0.72727000000000        0.07185000000000       -0.00042000000000
C           -0.10716000000000        1.21297000000000       -0.00071000000000
C           -1.38756000000000        0.71582000000000        0.00024000000000
N           -1.26252000000000       -0.64167000000000        0.00095000000000
N            0.01291000000000       -1.06084000000000        0.00089000000000
H            2.63500000000000        1.03136000000000        0.00197000000000
H            2.57534000000000       -0.49563000000000       -0.89364000000000
H            2.57758000000000       -0.50372000000000        0.88346000000000
H            0.18849000000000        2.25236000000000       -0.00128000000000
H           -2.35538000000000        1.19571000000000       -0.00043000000000
H           -3.03311146000000       -2.40107161000000        0.00248089000000
C           -2.32038562000000       -1.64791030000000        0.00184232000000
N           -4.63899519000000       -3.85336849000000        0.00379811000000
N           -5.43601723000000       -4.61149475000000        0.00447041000000
H           -1.34344762000000       -2.13724989000000        0.00172301000000
H           -2.76027567000000       -0.64773145000000        0.00150863000000

 Bond Distances (Angstroems)
 ---------------------------
C1-C2=1.4820         C1-H7=1.0947         C1-H8=1.0948         C1-H9=1.0947         C2-C1=1.4820         C2-C3=1.4137         
C2-N6=1.3391         C3-C2=1.4137         C3-C4=1.3735         C3-H10=1.0806        C4-C3=1.3735         C4-N5=1.3632         
C4-H11=1.0803        N5-C4=1.3632         N5-N6=1.3425         N5-C13=1.4600        N6-C2=1.3391         N6-N5=1.3425         
H7-C1=1.0947         H8-C1=1.0948         H9-C1=1.0947         H10-C3=1.0806        H11-C4=1.0803        H12-C13=1.0369       
C13-N5=1.4600        C13-H12=1.0369       C13-H16=1.0926       C13-H17=1.0926       N14-N15=1.1000       N15-N14=1.1000       
H16-C13=1.0926       H17-C13=1.0926       
 C  H  Rav=1.0834 sigma=0.0185  Rmin=1.0369  Rmax=1.0948     8
 C  C  Rav=1.4230 sigma=0.0448  Rmin=1.3735  Rmax=1.4820     3
 N  C  Rav=1.3875 sigma=0.0522  Rmin=1.3391  Rmax=1.4600     3
 N  N  Rav=1.2213 sigma=0.1213  Rmin=1.1000  Rmax=1.3425     2

 selected bond angles (degree)
 --------------------
H7-C1-C2=111.05                H8-C1-C2=110.58                H8-C1-H7=108.00                H9-C1-C2=110.60                
H9-C1-H7=107.99                H9-C1-H8=108.52                C3-C2-C1=128.06                N6-C2-C1=120.36                
N6-C2-C3=111.59                C4-C3-C2=104.96                H10-C3-C2=127.95               H10-C3-C4=127.10               
N5-C4-C3=105.96                H11-C4-C3=132.41               H11-C4-N5=121.64               N6-N5-C4=113.46                
C13-N5-C4=128.30               C13-N5-N6=118.24               N5-N6-C2=104.05                

 selected dihedral angles (degree)
 ---------------------------------
C3-C2-C1-H7=  0.33            C3-C2-C1-H8=240.45            C3-C2-C1-H9=120.21            N6-C2-C1-H7=180.28            
N6-C2-C1-H8= 60.41            N6-C2-C1-H9=300.17            C4-C3-C2-C1=179.95            C4-C3-C2-N6=  0.00            
H10-C3-C2-C1=359.93           H10-C3-C2-N6=179.97           N5-C4-C3-C2=  0.00            N5-C4-C3-H10=180.01           
H11-C4-C3-C2=180.06           H11-C4-C3-H10=  0.08          N6-N5-C4-C3=  0.00            N6-N5-C4-H11=179.96           
C13-N5-C4-C3=180.01           C13-N5-C4-H11=359.96          N5-N6-C2-C1=180.06            N5-N6-C2-C3=  0.00            
C2-N6-N5-C4=359.98            C2-N6-N5-C13=179.98           

 CMA Distance (Angstroems)
 ---------------------------
R(CMA):  6.2030
           -------------------------------------------------
          |                Final Singlepoint                |
           -------------------------------------------------

          ...................................................
          :                      SETUP                      :
          :.................................................:
          :  # basis functions                  44          :
          :  # atomic orbitals                  44          :
          :  # shells                           26          :
          :  # electrons                        48          :
          :  max. iterations                   250          :
          :  Hamiltonian                  GFN2-xTB          :
          :  restarted?                      false          :
          :  GBSA solvation                  false          :
          :  PC potential                    false          :
          :  electronic temp.          300.0000000     K    :
          :  accuracy                    1.0000000          :
          :  -> integral cutoff          0.2500000E+02      :
          :  -> integral neglect         0.1000000E-07      :
          :  -> SCF convergence          0.1000000E-05 Eh   :
          :  -> wf. convergence          0.1000000E-03 e    :
          :  Broyden damping             0.4000000          :
          :  net charge                          0          :
          :  unpaired electrons                  0          :
          ...................................................

 iter      E             dE          RMSdq      gap      omega  full diag
   1    -26.0422731 -0.260423E+02  0.449E+00    0.01       0.0  T
   2    -25.4800034  0.562270E+00  0.508E+00    0.65       1.0  T
   3    -26.5084982 -0.102849E+01  0.190E+00    2.22       1.0  T
   4    -26.5202591 -0.117608E-01  0.140E+00    2.18       1.0  T
   5    -26.5213372 -0.107817E-02  0.122E+00    2.13       1.0  T
   6    -26.5225739 -0.123663E-02  0.916E-01    1.86       1.0  T
   7    -26.5240380 -0.146415E-02  0.565E-01    1.35       1.0  T
   8    -26.5244050 -0.367036E-03  0.494E-01    1.12       1.0  T
   9    -26.5250141 -0.609086E-03  0.360E-01    0.57       1.0  T
  10    -25.4369412  0.108807E+01  0.689E+00    0.00       1.0  T
  11    -26.5241741 -0.108723E+01  0.595E-01    1.19       1.0  T
  12    -26.5243711 -0.196933E-03  0.545E-01    1.06       1.0  T
  13    -26.5245375 -0.166397E-03  0.506E-01    0.94       1.0  T
  14    -26.5247090 -0.171493E-03  0.463E-01    0.80       1.0  T
  15    -26.5250236 -0.314616E-03  0.381E-01    0.52       1.0  T
  16    -26.5260832 -0.105964E-02  0.237E-01    0.26       1.0  T
  17    -26.5259585  0.124740E-03  0.251E-01    0.27       1.0  T
  18    -26.2961897  0.229769E+00  0.320E+00    0.03       1.0  T
  19    -26.5211987 -0.225009E+00  0.100E+00    2.23       1.0  T
  20    -26.5224104 -0.121174E-02  0.866E-01    2.17       1.0  T
  21    -26.5239663 -0.155592E-02  0.630E-01    1.35       1.0  T
  22    -26.5245627 -0.596367E-03  0.502E-01    0.92       1.0  T
  23    -26.5251366 -0.573893E-03  0.356E-01    0.44       1.0  T
  24    -25.4920902  0.103305E+01  0.665E+00    0.00       1.0  T
  25    -25.0256634  0.466427E+00  0.620E+00    0.60       1.0  T
  26    -25.8357458 -0.810082E+00  0.436E+00    0.62       1.0  T
  27    -25.6240344  0.211711E+00  0.481E+00    0.67       1.0  T
  28    -26.4108537 -0.786819E+00  0.262E+00    0.82       1.0  T
  29    -26.5089740 -0.981203E-01  0.165E+00    2.01       1.0  T
  30    -26.5158151 -0.684117E-02  0.134E+00    2.35       1.0  T
  31    -26.5203348 -0.451961E-02  0.984E-01    2.23       1.0  T
  32    -26.5211946 -0.859891E-03  0.887E-01    2.20       1.0  T
  33    -26.5211101  0.845046E-04  0.902E-01    2.20       1.0  T
  34    -26.5221225 -0.101238E-02  0.907E-01    2.20       1.0  T
  35    -26.5248037 -0.268120E-02  0.638E-01    0.43       1.0  T
  36    -25.4331488  0.109165E+01  0.677E+00    0.00       1.0  T
  37    -24.9970272  0.436122E+00  0.651E+00    0.50       1.0  T
  38    -22.1543227  0.284270E+01  0.106E+01    0.07       1.0  T
  39    -22.1139895  0.403332E-01  0.111E+01    0.09       1.0  T
  40    -22.1154865 -0.149697E-02  0.111E+01    0.09       1.0  T
  41    -22.1164452 -0.958732E-03  0.110E+01    0.09       1.0  T
  42    -22.1149254  0.151984E-02  0.111E+01    0.09       1.0  T
  43    -22.1051829  0.974243E-02  0.111E+01    0.07       1.0  T
  44    -22.1301382 -0.249552E-01  0.109E+01    0.07       1.0  T
  45    -22.0944056  0.357325E-01  0.109E+01    0.03       1.0  T
  46    -22.1135533 -0.191477E-01  0.107E+01    0.03       1.0  T
  47    -22.1319000 -0.183467E-01  0.105E+01    0.03       1.0  T
  48    -22.0989452  0.329548E-01  0.108E+01    0.01       1.0  T
  49    -22.0974235  0.152165E-02  0.108E+01    0.01       1.0  T
  50    -22.1080034 -0.105799E-01  0.109E+01    0.02       1.0  T
  51    -25.4052026 -0.329720E+01  0.601E+00    0.01       1.0  T
  52    -26.4979863 -0.109278E+01  0.347E+00    2.87       1.0  T
  53    -26.5079625 -0.997625E-02  0.257E+00    1.25       1.0  T
  54    -26.5156032 -0.764071E-02  0.191E+00    2.40       1.0  T
  55    -26.5214183 -0.581504E-02  0.121E+00    2.24       1.0  T
  56    -26.5165193  0.489895E-02  0.143E+00    2.36       1.0  T
  57    -26.5135477  0.297166E-02  0.148E+00    2.19       1.0  T
  58    -26.5203687 -0.682104E-02  0.116E+00    2.27       1.0  T
  59    -26.5229747 -0.260599E-02  0.932E-01    2.16       1.0  T
  60    -26.5239990 -0.102424E-02  0.782E-01    1.49       1.0  T
  61    -26.5247980 -0.799055E-03  0.598E-01    0.77       1.0  T
  62    -26.5252762 -0.478180E-03  0.467E-01    0.37       1.0  T
  63    -26.5267765 -0.150028E-02  0.252E-01    0.21       1.0  T
  64    -26.5251166  0.165985E-02  0.444E-01    0.50       1.0  T
  65    -26.5189027  0.621388E-02  0.592E-01    0.12       1.0  T
  66    -26.5242423 -0.533956E-02  0.663E-01    1.29       1.0  T
  67    -26.5252433 -0.100103E-02  0.367E-01    0.44       1.0  T
  68    -26.0401209  0.485122E+00  0.460E+00    0.01       1.0  T
  69    -25.8899383  0.150183E+00  0.417E+00    0.60       1.0  T
  70    -26.4452281 -0.555290E+00  0.140E+00    0.07       1.0  T
  71    -26.5170307 -0.718025E-01  0.161E+00    2.41       1.0  T
  72    -26.5241262 -0.709558E-02  0.747E-01    1.25       1.0  T
  73    -26.5271406 -0.301430E-02  0.141E-01    0.18       1.0  T
  74    -26.5173476  0.979298E-02  0.606E-01    0.12       1.0  T
  75    -26.5243787 -0.703110E-02  0.633E-01    1.05       1.0  T
  76    -26.5256750 -0.129629E-02  0.231E-01    0.15       1.0  T
  77    -26.5250438  0.631146E-03  0.442E-01    0.50       1.0  T
  78    -25.5139930  0.101105E+01  0.655E+00    0.00       1.0  T
  79    -25.0546025  0.459391E+00  0.616E+00    0.60       1.0  T
  80    -26.5138700 -0.145927E+01  0.263E+00    1.49       1.0  T
  81    -26.1710148  0.342855E+00  0.356E+00    0.02       1.0  T
  82    -26.4996960 -0.328681E+00  0.240E+00    1.86       1.0  T
  83    -26.5216522 -0.219562E-01  0.126E+00    2.22       1.0  T
  84    -26.5244651 -0.281283E-02  0.696E-01    0.79       1.0  T
  85    -25.4990434  0.102542E+01  0.650E+00    0.00       1.0  T
  86    -25.1024507  0.396593E+00  0.604E+00    0.63       1.0  T
  87    -26.5150272 -0.141258E+01  0.261E+00    0.29       1.0  T
  88    -25.4545139  0.106051E+01  0.629E+00    0.00       1.0  T
  89    -25.1738623  0.280652E+00  0.595E+00    0.66       1.0  T
  90    -25.4842617 -0.310399E+00  0.525E+00    0.00       1.0  T
  91    -26.2931893 -0.808928E+00  0.392E+00    0.71       1.0  T
  92    -26.5187453 -0.225556E+00  0.211E+00    1.09       1.0  T
  93    -26.5241052 -0.535997E-02  0.106E+00    0.33       1.0  T
  94    -25.7370179  0.787087E+00  0.552E+00    0.00       1.0  T
  95    -26.0972085 -0.360191E+00  0.392E+00    0.61       1.0  T
  96    -26.5181534 -0.420945E+00  0.207E+00    0.96       1.0  T
  97    -26.5238184 -0.566498E-02  0.942E-01    0.61       1.0  T
  98    -25.4496295  0.107419E+01  0.658E+00    0.00       1.0  T
  99    -25.4389259  0.107036E-01  0.535E+00    0.76       1.0  T
 100    -25.9855036 -0.546578E+00  0.361E+00    0.01       1.0  T
 101    -26.4911836 -0.505680E+00  0.310E+00    1.82       1.0  T
 102    -26.5222646 -0.310811E-01  0.123E+00    1.87       1.0  T
 103    -26.5241944 -0.192971E-02  0.771E-01    0.83       1.0  T
 104    -26.0400060  0.484188E+00  0.445E+00    0.01       1.0  T
 105    -26.4965016 -0.456496E+00  0.237E+00    1.70       1.0  T
 106    -26.5204879 -0.239863E-01  0.121E+00    2.29       1.0  T
 107    -26.5237988 -0.331091E-02  0.722E-01    1.26       1.0  T
 108    -26.5262697 -0.247085E-02  0.302E-01    0.24       1.0  T
 109    -25.4463115  0.107996E+01  0.674E+00    0.00       1.0  T
 110    -25.2253349  0.220977E+00  0.573E+00    0.70       1.0  T
 111    -26.5137152 -0.128838E+01  0.257E+00    1.56       1.0  T
 112    -26.5218831 -0.816788E-02  0.459E-01    0.13       1.0  T
 113    -26.5242204 -0.233728E-02  0.811E-01    0.56       1.0  T
 114    -25.4430465  0.108117E+01  0.665E+00    0.00       1.0  T
 115    -25.6733313 -0.230285E+00  0.488E+00    0.66       1.0  T
 116    -26.5154303 -0.842099E+00  0.243E+00    0.87       1.0  T
 117    -26.5080192  0.741108E-02  0.654E-01    0.10       1.0  T
 118    -26.5238976 -0.158784E-01  0.899E-01    0.70       1.0  T
 119    -25.4461566  0.107774E+01  0.660E+00    0.00       1.0  T
 120    -25.7768268 -0.330670E+00  0.467E+00    0.63       1.0  T
 121    -26.5165824 -0.739756E+00  0.227E+00    1.08       1.0  T
 122    -26.5243243 -0.774193E-02  0.913E-01    0.34       1.0  T
 123    -25.4444911  0.107983E+01  0.661E+00    0.00       1.0  T
 124    -26.2872929 -0.842802E+00  0.357E+00    0.68       1.0  T
 125    -26.5187698 -0.231477E+00  0.180E+00    2.15       1.0  T
 126    -26.5235064 -0.473658E-02  0.935E-01    1.18       1.0  T
 127    -26.5182971  0.520925E-02  0.488E-01    0.12       1.0  T
 128    -26.5245676 -0.627045E-02  0.637E-01    0.59       1.0  T
 129    -25.4833599  0.104121E+01  0.655E+00    0.00       1.0  T
 130    -25.8571198 -0.373760E+00  0.445E+00    0.61       1.0  T
 131    -26.5172602 -0.660140E+00  0.211E+00    1.62       1.0  T
 132    -26.5238821 -0.662190E-02  0.893E-01    0.77       1.0  T
 133    -26.1840604  0.339822E+00  0.369E+00    0.02       1.0  T
 134    -26.5126329 -0.328572E+00  0.194E+00    2.52       1.0  T
 135    -26.5225365 -0.990359E-02  0.973E-01    1.90       1.0  T
 136    -26.5244697 -0.193319E-02  0.583E-01    0.82       1.0  T
 137    -26.5261633 -0.169365E-02  0.166E-01    0.15       1.0  T
 138    -26.5255087  0.654598E-03  0.376E-01    0.31       1.0  T
 139    -25.4823903  0.104312E+01  0.663E+00    0.00       1.0  T
 140    -25.7179591 -0.235569E+00  0.471E+00    0.64       1.0  T
 141    -26.5168153 -0.798856E+00  0.214E+00    1.82       1.0  T
 142    -26.5240176 -0.720226E-02  0.857E-01    0.72       1.0  T
 143    -26.4427884  0.812292E-01  0.177E+00    0.07       1.0  T
 144    -26.5219974 -0.792090E-01  0.113E+00    1.92       1.0  T
 145    -26.5245476 -0.255025E-02  0.609E-01    0.68       1.0  T
 146    -26.3187243  0.205823E+00  0.295E+00    0.04       1.0  T
 147    -26.5173150 -0.198591E+00  0.155E+00    2.40       1.0  T
 148    -26.5232237 -0.590873E-02  0.802E-01    1.65       1.0  T
 149    -26.5246799 -0.145615E-02  0.488E-01    0.73       1.0  T
 150    -26.5252586 -0.578688E-03  0.278E-01    0.15       1.0  T
 151    -26.5251557  0.102856E-03  0.392E-01    0.40       1.0  T
 152    -25.7487709  0.776385E+00  0.576E+00    0.00       1.0  T
 153    -26.4211507 -0.672380E+00  0.286E+00    0.87       1.0  T
 154    -26.5179087 -0.967580E-01  0.148E+00    2.37       1.0  T
 155    -26.5227107 -0.480200E-02  0.888E-01    1.97       1.0  T
 156    -26.5246858 -0.197511E-02  0.499E-01    0.77       1.0  T
 157    -26.4985241  0.261617E-01  0.112E+00    0.09       1.0  T
 158    -26.5238891 -0.253650E-01  0.708E-01    1.28       1.0  T
 159    -26.5250254 -0.113623E-02  0.402E-01    0.47       1.0  T
 160    -26.2324733  0.292552E+00  0.360E+00    0.02       1.0  T
 161    -26.5127759 -0.280303E+00  0.177E+00    2.48       1.0  T
 162    -26.5222035 -0.942754E-02  0.909E-01    2.20       1.0  T
 163    -26.5243191 -0.211563E-02  0.541E-01    1.11       1.0  T
 164    -26.5251954 -0.876253E-03  0.323E-01    0.41       1.0  T
 165    -26.1811220  0.344073E+00  0.393E+00    0.02       1.0  T
 166    -26.5078523 -0.326730E+00  0.194E+00    2.15       1.0  T
 167    -26.5213844 -0.135321E-01  0.999E-01    2.23       1.0  T
 168    -26.5241186 -0.273424E-02  0.581E-01    1.27       1.0  T
 169    -26.5251008 -0.982183E-03  0.338E-01    0.48       1.0  T
 170    -26.3838218  0.141279E+00  0.257E+00    0.05       1.0  T
 171    -26.5185812 -0.134759E+00  0.135E+00    2.34       1.0  T
 172    -26.5235878 -0.500661E-02  0.690E-01    1.58       1.0  T
 173    -26.5248655 -0.127772E-02  0.398E-01    0.67       1.0  T
 174    -26.5271935 -0.232796E-02  0.614E-02    0.18       1.0  T
 175    -26.5270180  0.175510E-03  0.714E-02    0.21       1.0  T
 176    -26.5211430  0.587503E-02  0.553E-01    0.13       1.0  T
 177    -26.5246139 -0.347092E-02  0.500E-01    0.87       1.0  T
 178    -26.5258981 -0.128425E-02  0.243E-01    0.28       1.0  T
 179    -25.8833768  0.642521E+00  0.530E+00    0.00       1.0  T
 180    -26.3309461 -0.447569E+00  0.306E+00    0.70       1.0  T
 181    -26.5175833 -0.186637E+00  0.159E+00    2.40       1.0  T
 182    -26.5234355 -0.585225E-02  0.798E-01    1.58       1.0  T
 183    -26.5251505 -0.171501E-02  0.389E-01    0.42       1.0  T
 184    -25.4569983  0.106815E+01  0.676E+00    0.00       1.0  T
 185    -25.2170952  0.239903E+00  0.575E+00    0.68       1.0  T
 186    -26.5163028 -0.129921E+01  0.223E+00    1.97       1.0  T
 187    -26.5257437 -0.944085E-02  0.433E-01    0.15       1.0  T
 188    -26.5109797  0.147640E-01  0.646E-01    0.11       1.0  T
 189    -26.5239012 -0.129215E-01  0.837E-01    0.99       1.0  T
 190    -26.3641209  0.159780E+00  0.255E+00    0.05       1.0  T
 191    -26.5180501 -0.153929E+00  0.152E+00    2.38       1.0  T
 192    -26.5238461 -0.579596E-02  0.741E-01    1.25       1.0  T
 193    -26.5252182 -0.137219E-02  0.409E-01    0.37       1.0  T
 194    -25.5250840  0.100013E+01  0.650E+00    0.00       1.0  T
 195    -25.3002833  0.224801E+00  0.558E+00    0.71       1.0  T
 196    -26.5164204 -0.121614E+01  0.226E+00    1.62       1.0  T
 197    -26.1917437  0.324677E+00  0.344E+00    0.02       1.0  T
 198    -26.5108958 -0.319152E+00  0.216E+00    2.58       1.0  T
 199    -26.5229817 -0.120858E-01  0.100E+00    1.58       1.0  T
 200    -26.5248476 -0.186591E-02  0.567E-01    0.46       1.0  T
 201    -25.5470692  0.977778E+00  0.635E+00    0.00       1.0  T
 202    -25.4139657  0.133104E+00  0.537E+00    0.74       1.0  T
 203    -26.5168573 -0.110289E+01  0.224E+00    1.29       1.0  T
 204    -25.6069696  0.909888E+00  0.583E+00    0.00       1.0  T
 205    -26.3892826 -0.782313E+00  0.344E+00    0.82       1.0  T
 206    -26.5187752 -0.129493E+00  0.170E+00    2.40       1.0  T
 207    -26.5241395 -0.536436E-02  0.821E-01    0.83       1.0  T
 208    -26.0056247  0.518515E+00  0.457E+00    0.01       1.0  T
 209    -26.4903143 -0.484690E+00  0.253E+00    1.52       1.0  T
 210    -26.5202454 -0.299311E-01  0.123E+00    2.29       1.0  T
 211    -26.5239852 -0.373977E-02  0.692E-01    1.21       1.0  T
 212    -26.5255117 -0.152649E-02  0.371E-01    0.31       1.0  T
 213    -25.4702821  0.105523E+01  0.667E+00    0.00       1.0  T
 214    -25.2333706  0.236912E+00  0.573E+00    0.69       1.0  T
 215    -26.5168248 -0.128345E+01  0.218E+00    1.77       1.0  T
 216    -26.4770721  0.397527E-01  0.115E+00    0.08       1.0  T
 217    -26.5222080 -0.451358E-01  0.121E+00    1.55       1.0  T
 218    -26.5267437 -0.453577E-02  0.445E-01    0.20       1.0  T
 219    -25.5435756  0.983168E+00  0.630E+00    0.00       1.0  T
 220    -25.4383508  0.105225E+00  0.534E+00    0.74       1.0  T
 221    -26.5176494 -0.107930E+01  0.214E+00    1.08       1.0  T
 222    -25.4901924  0.102746E+01  0.619E+00    0.00       1.0  T
 223    -26.3646574 -0.874465E+00  0.360E+00    0.78       1.0  T
 224    -26.5193541 -0.154697E+00  0.169E+00    2.34       1.0  T
 225    -26.5242199 -0.486578E-02  0.836E-01    0.66       1.0  T
 226    -25.6815036  0.842716E+00  0.580E+00    0.00       1.0  T
 227    -26.1429738 -0.461470E+00  0.383E+00    0.62       1.0  T
 228    -26.5187259 -0.375752E+00  0.179E+00    2.21       1.0  T
 229    -26.5241983 -0.547233E-02  0.805E-01    0.65       1.0  T
 230    -26.0478299  0.476368E+00  0.438E+00    0.01       1.0  T
 231    -26.5019529 -0.454123E+00  0.234E+00    1.99       1.0  T
 232    -26.5215143 -0.195614E-01  0.111E+00    2.25       1.0  T
 233    -26.5243063 -0.279207E-02  0.623E-01    0.96       1.0  T
 234    -26.5259907 -0.168438E-02  0.314E-01    0.26       1.0  T
 235    -25.6647485  0.861242E+00  0.604E+00    0.00       1.0  T
 236    -25.8118947 -0.147146E+00  0.448E+00    0.62       1.0  T
 237    -26.5167454 -0.704851E+00  0.206E+00    2.31       1.0  T
 238    -26.5242595 -0.751407E-02  0.788E-01    0.61       1.0  T
 239    -25.7375697  0.786690E+00  0.565E+00    0.00       1.0  T
 240    -26.4488979 -0.711328E+00  0.294E+00    1.01       1.0  T
 241    -26.5195844 -0.706865E-01  0.140E+00    2.34       1.0  T
 242    -26.5240300 -0.444557E-02  0.726E-01    1.12       1.0  T
 243    -26.5265398 -0.250986E-02  0.283E-01    0.23       1.0  T
 244    -25.6560484  0.870491E+00  0.605E+00    0.00       1.0  T
 245    -25.8594360 -0.203388E+00  0.439E+00    0.61       1.0  T
 246    -26.5175425 -0.658106E+00  0.196E+00    2.25       1.0  T
 247    -26.5242978 -0.675538E-02  0.782E-01    0.59       1.0  T
 248    -25.7566342  0.767664E+00  0.558E+00    0.00       1.0  T
 249    -26.4543839 -0.697750E+00  0.292E+00    1.05       1.0  T
 250    -26.5198535 -0.654696E-01  0.136E+00    2.33       1.0  T

   *** convergence criteria cannot be satisfied within 250 iterations ***

         #    Occupation            Energy/Eh            Energy/eV
Note: The following floating-point exceptions are signalling: IEEE_DENORMAL
ERROR STOP 

Error termination. Backtrace:
#0  0x55b29cf2faeb in ???
#1  0x55b29ce6352e in ???
#2  0x55b29ce50244 in ???
#3  0x7efe12428d8f in __libc_start_call_main
	at ../sysdeps/nptl/libc_start_call_main.h:58
#4  0x7efe12428e3f in __libc_start_main_impl
	at ../csu/libc-start.c:392
#5  0x55b29ce502e6 in ???
#6  0xffffffffffffffff in ???
abnormal termination of xtb
      -------------------------------------------------------------
         1        2.0000           -0.7083226             -19.2744
       ...           ...                  ...                  ...
        18        2.0000           -0.4634814             -12.6120
        19        2.0000           -0.4567515             -12.4288
        20        2.0000           -0.4250128             -11.5652
        21        2.0000           -0.4155033             -11.3064
        22        2.0000           -0.4114867             -11.1971
        23        2.0000           -0.3908322             -10.6351
        24        2.0000           -0.3326642              -9.0523 (HOMO)
        25                         -0.2471768              -6.7260 (LUMO)
        26                         -0.2294798              -6.2445
        27                         -0.2293871              -6.2419
        28                         -0.2167506              -5.8981
        29                         -0.1695891              -4.6148
       ...                                ...                  ...
        44                          0.8489507              23.1011
      -------------------------------------------------------------
                  HL-Gap            0.0854874 Eh            2.3262 eV
             Fermi-level           -0.2899205 Eh           -7.8891 eV

 SCC (total)                   0 d,  0 h,  2 min, 55.046 sec
 SCC setup                      ...        0 min,  0.067 sec (  0.038%)
 Dispersion                     ...        0 min,  0.068 sec (  0.039%)
 classical contributions        ...        0 min,  0.080 sec (  0.046%)
 integral evaluation            ...        0 min,  0.224 sec (  0.128%)
 iterations                     ...        2 min, 54.240 sec ( 99.540%)
 molecular gradient             ...        0 min,  0.366 sec (  0.209%)
 printout                       ...        0 min,  0.000 sec (  0.000%)


last geometry written to: xtblast.xyz

########################################################################
[ERROR] Program stopped due to fatal error
-9- Geometry optimization failed
-8- xtb_calculator_singlepoint: Electronic structure method terminated
-7- scf: Self consistent charge iterator did not converge
-6- xtb_geoopt: Trying to recover from failed geometry optimization
-5- xtb_geoopt: Geometry optimization did not converge
-4- optimizer_ancopt: Could not relax/optimize structure
-3- optimizer_relax: SCF not converged, aborting...
-2- xtb_calculator_singlepoint: Electronic structure method terminated
-1- scf: Self consistent charge iterator did not converge
########################################################################
