      -----------------------------------------------------------      
     |                   =====================                   |     
     |                           x T B                           |     
     |                   =====================                   |     
     |                         S. Grimme                         |     
     |          Mulliken Center for Theoretical Chemistry        |     
     |                    University of Bonn                     |     
      -----------------------------------------------------------      

   * xtb version 6.7.1 (edcfbbe) compiled by 'conda@3ef47c1a292c' on 2024-11-25

   xtb is free software: you can redistribute it and/or modify it under
   the terms of the GNU Lesser General Public License as published by
   the Free Software Foundation, either version 3 of the License, or
   (at your option) any later version.
   
   xtb is distributed in the hope that it will be useful,
   but WITHOUT ANY WARRANTY; without even the implied warranty of
   MERCHANTABILITY or FITNESS FOR A PARTICULAR PURPOSE.  See the
   GNU Lesser General Public License for more details.
   
   Cite this work as:
   * C. Bannwarth, E. Caldeweyher, S. Ehlert, A. Hansen, P. Pracht,
     J. Seibert, S. Spicher, S. Grimme, WIREs Comput. Mol. Sci., 2020, 11,
     e01493. DOI: 10.1002/wcms.1493
   
   for GFN2-xTB:
   * C. Bannwarth, S. Ehlert and S. Grimme., J. Chem. Theory Comput., 2019,
     15, 1652-1671. DOI: 10.1021/acs.jctc.8b01176
   for GFN1-xTB:
   * S. Grimme, C. Bannwarth, P. Shushkov, J. Chem. Theory Comput., 2017,
     13, 1989-2009. DOI: 10.1021/acs.jctc.7b00118
   for GFN0-xTB:
   * P. Pracht, E. Caldeweyher, S. Ehlert, S. Grimme, ChemRxiv, 2019, preprint.
     DOI: 10.26434/chemrxiv.8326202.v1
   for GFN-FF:
   * S. Spicher and S. Grimme, Angew. Chem. Int. Ed., 2020, 59, 15665-15673.
     DOI: 10.1002/anie.202004239
   
   for ALPB and GBSA implicit solvation:
   * S. Ehlert, M. Stahn, S. Spicher, S. Grimme, J. Chem. Theory Comput.,
     2021, 17, 4250-4261. DOI: 10.1021/acs.jctc.1c00471
   
   for ddCOSMO and CPCM-X implicit solvation:
   * M. Stahn, S. Ehlert, S. Grimme, J. Phys. Chem. A,
     2023, XX, XXXX-XXXX. DOI: 10.1021/acs.jpca.3c04382
   
   for DFT-D4:
   * E. Caldeweyher, C. Bannwarth and S. Grimme, J. Chem. Phys., 2017,
     147, 034112. DOI: 10.1063/1.4993215
   * E. Caldeweyher, S. Ehlert, A. Hansen, H. Neugebauer, S. Spicher,
     C. Bannwarth and S. Grimme, J. Chem. Phys., 2019, 150, 154122.
     DOI: 10.1063/1.5090222
   * E. Caldeweyher, J.-M. Mewes, S. Ehlert and S. Grimme, Phys. Chem. Chem. Phys.
     2020, 22, 8499-8512. DOI: 10.1039/D0CP00502A
   
   for sTDA-xTB:
   * S. Grimme and C. Bannwarth, J. Chem. Phys., 2016, 145, 054103.
     DOI: 10.1063/1.4959605
   
   in the mass-spec context:
   * V. Asgeirsson, C. Bauer and S. Grimme, Chem. Sci., 2017, 8, 4879.
     DOI: 10.1039/c7sc00601b
   * J. Koopman and S. Grimme, ACS Omega 2019, 4, 12, 15120-15133.
     DOI: 10.1021/acsomega.9b02011
   
   for metadynamics refer to:
   * S. Grimme, J. Chem. Theory Comput., 2019, 155, 2847-2862
     DOI: 10.1021/acs.jctc.9b00143
   
   for SPH calculations refer to:
   * S. Spicher and S. Grimme, J. Chem. Theory Comput., 2021, 17, 1701-1714
     DOI: 10.1021/acs.jctc.0c01306
   
   for ONIOM refer to:
   * C. Plett, A. Katbashev, S. Ehlert, S. Grimme, M. Bursch,
     Phys. Chem. Chem. Phys., 2023, 25, 17860-17868. DOI: 10.1039/D3CP02178E
   
   for DIPRO refer to:
   * J. Kohn, N. Gildemeister, S. Grimme, D. Fazzi, A. Hansen,
     J. Chem. Phys., 2023, just accepted.
   
   for PTB refer to:
   * S. Grimme, M. Mueller, A. Hansen, J. Chem. Phys., 2023, 158, 124111.
     DOI: 10.1063/5.0137838
   
   with help from (in alphabetical order)
   P. Atkinson, C. Bannwarth, F. Bohle, G. Brandenburg, E. Caldeweyher
   M. Checinski, S. Dohm, S. Ehlert, S. Ehrlich, I. Gerasimov, C. Hölzer
   A. Katbashev, J. Kohn, J. Koopman, C. Lavigne, S. Lehtola, F. März, M. Müller,
   F. Musil, H. Neugebauer, J. Pisarek, C. Plett, P. Pracht, F. Pultar,
   J. Seibert, P. Shushkov, S. Spicher, M. Stahn, M. Steiner, T. Strunk,
   J. Stückrath, T. Rose, and J. Unsleber
   
 * started run on 2026/08/20 at 02:27:56.084     
   ID    Z sym.   atoms
    1    6 C      1-4, 13
    2    7 N      5, 6, 14, 15
    3    1 H      7-12, 16, 17

           -------------------------------------------------
          |                Calculation Setup                |
           -------------------------------------------------

          program call               : xtb substrate_in.xyz --gfn 2 --opt loose
          coordinate file            : substrate_in.xyz
          omp threads                :                    16


molecular fragmentation (1/2 indicates fragments):
11111111111122222
# atoms in fragment 1/2:    12     5
 fragment masses (1/2) :       82.10       42.04
CMA distance (Bohr)    :  10.307
constraining FC (au)   :  0.0500

           -------------------------------------------------
          |                 G F N 2 - x T B                 |
           -------------------------------------------------

        Reference                      10.1021/acs.jctc.8b01176
      * Hamiltonian:
        H0-scaling (s, p, d)           1.850000    2.230000    2.230000
        zeta-weighting                 0.500000
      * Dispersion:
        s8                             2.700000
        a1                             0.520000
        a2                             5.000000
        s9                             5.000000
      * Repulsion:
        kExp                           1.500000    1.000000
        rExp                           1.000000
      * Coulomb:
        alpha                          2.000000
        third order                    shell-resolved
        anisotropic                    true
        a3                             3.000000
        a5                             4.000000
        cn-shift                       1.200000
        cn-exp                         4.000000
        max-rad                        5.000000

q/qsh data taken from xtbrestart
CAMM data taken from xtbrestart

          ...................................................
          :                      SETUP                      :
          :.................................................:
          :  # basis functions                  44          :
          :  # atomic orbitals                  44          :
          :  # shells                           26          :
          :  # electrons                        48          :
          :  max. iterations                   250          :
          :  Hamiltonian                  GFN2-xTB          :
          :  restarted?                       true          :
          :  GBSA solvation                  false          :
          :  PC potential                    false          :
          :  electronic temp.          300.0000000     K    :
          :  accuracy                    1.0000000          :
          :  -> integral cutoff          0.2500000E+02      :
          :  -> integral neglect         0.1000000E-07      :
          :  -> SCF convergence          0.1000000E-05 Eh   :
          :  -> wf. convergence          0.1000000E-03 e    :
          :  Broyden damping             0.4000000          :
          :  net charge                          0          :
          :  unpaired electrons                  0          :
          ...................................................

 iter      E             dE          RMSdq      gap      omega  full diag
   1    -26.7178078 -0.267178E+02  0.929E-01    2.30       0.0  T
   2    -26.7178320 -0.241771E-04  0.564E-01    2.17       1.0  T
   3    -26.7184962 -0.664161E-03  0.472E-01    2.35       1.0  T
   4    -26.7207937 -0.229751E-02  0.819E-02    2.22       1.0  T
   5    -26.7208210 -0.273262E-04  0.335E-02    2.22       1.0  T
   6    -26.7208221 -0.111988E-05  0.158E-02    2.22       1.5  T
   7    -26.7208240 -0.189680E-05  0.404E-03    2.22       6.0  T
   8    -26.7208241 -0.537877E-07  0.144E-03    2.22      16.9  T
   9    -26.7208241 -0.848960E-08  0.566E-04    2.22      42.9  T
  10    -26.7208241 -0.933071E-09  0.287E-04    2.22      84.4  T

   *** convergence criteria satisfied after 10 iterations ***

         #    Occupation            Energy/Eh            Energy/eV
      -------------------------------------------------------------
         1        2.0000           -0.7094622             -19.3054
       ...           ...                  ...                  ...
        18        2.0000           -0.4654641             -12.6659
        19        2.0000           -0.4543249             -12.3628
        20        2.0000           -0.4458381             -12.1319
        21        2.0000           -0.3952614             -10.7556
        22        2.0000           -0.3869307             -10.5289
        23        2.0000           -0.3860322             -10.5045
        24        2.0000           -0.3842263             -10.4553 (HOMO)
        25                         -0.3026907              -8.2366 (LUMO)
        26                         -0.2309131              -6.2835
        27                         -0.2088503              -5.6831
        28                         -0.1521191              -4.1394
        29                         -0.0016051              -0.0437
       ...                                ...                  ...
        44                          0.9187122              24.9994
      -------------------------------------------------------------
                  HL-Gap            0.0815356 Eh            2.2187 eV
             Fermi-level           -0.3434585 Eh           -9.3460 eV

 SCC (total)                   0 d,  0 h,  0 min,  3.744 sec
 SCC setup                      ...        0 min,  0.036 sec (  0.959%)
 Dispersion                     ...        0 min,  0.089 sec (  2.369%)
 classical contributions        ...        0 min,  0.042 sec (  1.132%)
 integral evaluation            ...        0 min,  0.136 sec (  3.641%)
 iterations                     ...        0 min,  3.093 sec ( 82.597%)
 molecular gradient             ...        0 min,  0.348 sec (  9.293%)
 printout                       ...        0 min,  0.000 sec (  0.008%)

         :::::::::::::::::::::::::::::::::::::::::::::::::::::
         ::                     SUMMARY                     ::
         :::::::::::::::::::::::::::::::::::::::::::::::::::::
         :: total energy             -26.345231052435 Eh    ::
         :: gradient norm              0.095036668775 Eh/a0 ::
         :: HOMO-LUMO gap              2.218695731392 eV    ::
         ::.................................................::
         :: SCC energy               -26.720897473499 Eh    ::
         :: -> isotropic ES            0.019102433416 Eh    ::
         :: -> anisotropic ES          0.003027976685 Eh    ::
         :: -> anisotropic XC          0.039628856847 Eh    ::
         :: -> dispersion             -0.010780849021 Eh    ::
         :: repulsion energy           0.375666421064 Eh    ::
         :: add. restraining           0.000000000000 Eh    ::
         :: total charge              -0.000000000000 e     ::
         :::::::::::::::::::::::::::::::::::::::::::::::::::::

      ----------------------------------------------------------- 
     |                   =====================                   |
     |                        A N C O P T                        |
     |                   =====================                   |
     |               Approximate Normal Coordinate               |
     |                Rational Function Optimizer                |
      ----------------------------------------------------------- 
      ----------------------------------------------------------- 
     |                   =====================                   |
     |                        A N C O P T                        |
     |                   =====================                   |
     |               Approximate Normal Coordinate               |
     |                Rational Function Optimizer                |
      ----------------------------------------------------------- 

          ...................................................
          :                      SETUP                      :
          :.................................................:
          :   optimization level             loose          :
          :   max. optcycles                   200          :
          :   ANC micro-cycles                  20          :
          :   degrees of freedom                45          :
          :.................................................:
          :   RF solver                   davidson          :
          :   write xtbopt.log                true          :
          :   linear?                        false          :
          :   energy convergence         0.5000000E-04 Eh   :
          :   grad. convergence          0.4000000E-02 Eh/α :
          :   maxmium RF displ.          1.0000000          :
          :   Hlow (freq-cutoff)         0.1000000E-01      :
          :   Hmax (freq-cutoff)         5.0000000          :
          :   S6 in model hess.         20.0000000          :
          ...................................................

generating ANC from exact Hessian ...
Using Lindh-Hessian (1995)
 Shifting diagonal of input Hessian by    9.7578745285757870E-003
 Lowest  eigenvalues of input Hessian
    0.000000    0.000000    0.000000    0.000000    0.000000    0.010000
    0.000000    0.010479    0.010750    0.011173    0.016313    0.017322
    0.018305    0.019721    0.020569    0.034158    0.037782    0.066301
 Highest eigenvalues
    1.585266    1.782431    1.867039    2.010688    2.062515    2.842058


........................................................................
.............................. CYCLE    1 ..............................
........................................................................

 iter      E             dE          RMSdq      gap      omega  full diag
   1    -26.7208241 -0.267208E+02  0.729E-05    2.22       0.0  T
   2    -26.7208241 -0.133937E-10  0.458E-05    2.22     529.1  T
   3    -26.7208241 -0.952838E-11  0.348E-05    2.22     696.2  T
     SCC iter.                  ...        0 min,  0.636 sec
     gradient                   ...        0 min,  0.405 sec
 * total energy  :   -26.3452311 Eh     change       -0.3740297E-09 Eh
   gradient norm :     0.0950345 Eh/α   predicted     0.0000000E+00 (-100.00%)
   displ. norm   :     0.4465251 α      lambda       -0.1843947E-01
   maximum displ.:     0.3909861 α      in ANC's #7, #5, #28, ...

........................................................................
.............................. CYCLE    2 ..............................
........................................................................

 iter      E             dE          RMSdq      gap      omega  full diag
   1    -26.7691288 -0.267691E+02  0.357E-01    2.46       0.0  T
   2    -26.7694988 -0.370041E-03  0.241E-01    2.54       1.0  T
   3    -26.7699368 -0.437946E-03  0.137E-01    2.49       1.0  T
   4    -26.7700323 -0.955434E-04  0.627E-02    2.53       1.0  T
   5    -26.7700514 -0.190996E-04  0.131E-02    2.52       1.9  T
   6    -26.7700521 -0.663529E-06  0.691E-03    2.52       3.5  T
   7    -26.7700524 -0.294886E-06  0.202E-03    2.52      12.0  T
   8    -26.7700524 -0.137274E-07  0.765E-04    2.52      31.7  T
   9    -26.7700524 -0.310649E-08  0.261E-04    2.52      92.9  T
     SCC iter.                  ...        0 min,  1.800 sec
     gradient                   ...        0 min,  0.367 sec
 * total energy  :   -26.3574786 Eh     change       -0.1224752E-01 Eh
   gradient norm :     0.0285118 Eh/α   predicted    -0.1105801E-01 (  -9.71%)
   displ. norm   :     0.4651285 α      lambda       -0.5379236E-02
   maximum displ.:     0.4410493 α      in ANC's #7, #5, #10, ...

........................................................................
.............................. CYCLE    3 ..............................
........................................................................

 iter      E             dE          RMSdq      gap      omega  full diag
   1    -26.7812272 -0.267812E+02  0.166E-01    2.51       0.0  T
   2    -26.7812259  0.128202E-05  0.124E-01    2.56       1.0  T
   3    -26.7814242 -0.198252E-03  0.603E-02    2.52       1.0  T
   4    -26.7814440 -0.198475E-04  0.153E-02    2.53       1.6  T
   5    -26.7814445 -0.441547E-06  0.602E-03    2.53       4.0  T
   6    -26.7814447 -0.199598E-06  0.250E-03    2.53       9.7  T
   7    -26.7814447 -0.336455E-07  0.740E-04    2.53      32.8  T
   8    -26.7814447 -0.211895E-08  0.320E-04    2.53      75.9  T
     SCC iter.                  ...        0 min,  1.676 sec
     gradient                   ...        0 min,  0.452 sec
 * total energy  :   -26.3615036 Eh     change       -0.4025053E-02 Eh
   gradient norm :     0.0105582 Eh/α   predicted    -0.3271523E-02 ( -18.72%)
   displ. norm   :     0.5344717 α      lambda       -0.3526272E-02
   maximum displ.:     0.5079134 α      in ANC's #7, #5, #22, ...

........................................................................
.............................. CYCLE    4 ..............................
........................................................................

 iter      E             dE          RMSdq      gap      omega  full diag
   1    -26.7824148 -0.267824E+02  0.103E-01    2.50       0.0  T
   2    -26.7824262 -0.113378E-04  0.611E-02    2.50       1.0  T
   3    -26.7824166  0.959548E-05  0.300E-02    2.51       1.0  T
   4    -26.7824281 -0.114910E-04  0.133E-02    2.50       1.8  T
   5    -26.7824297 -0.158894E-05  0.360E-03    2.50       6.7  T
   6    -26.7824298 -0.881973E-07  0.135E-03    2.50      18.0  T
   7    -26.7824298 -0.128056E-07  0.396E-04    2.50      61.3  T
   8    -26.7824298 -0.231008E-09  0.137E-04    2.50     177.4  T
     SCC iter.                  ...        0 min,  1.357 sec
     gradient                   ...        0 min,  0.460 sec
 * total energy  :   -26.3642067 Eh     change       -0.2703046E-02 Eh
   gradient norm :     0.0064997 Eh/α   predicted    -0.2266806E-02 ( -16.14%)
   displ. norm   :     0.4068099 α      lambda       -0.1551072E-02
   maximum displ.:     0.3807310 α      in ANC's #7, #5, #3, ...

........................................................................
.............................. CYCLE    5 ..............................
........................................................................

 iter      E             dE          RMSdq      gap      omega  full diag
   1    -26.7811129 -0.267811E+02  0.849E-02    2.48       0.0  T
   2    -26.7811169 -0.404215E-05  0.463E-02    2.48       1.0  T
   3    -26.7811110  0.589998E-05  0.249E-02    2.47       1.0  T
   4    -26.7811184 -0.739630E-05  0.551E-03    2.48       4.4  T
   5    -26.7811186 -0.179189E-06  0.278E-03    2.48       8.7  T
   6    -26.7811186 -0.414591E-07  0.646E-04    2.48      37.6  T
   7    -26.7811186 -0.156114E-08  0.248E-04    2.48      97.7  T
     SCC iter.                  ...        0 min,  1.562 sec
     gradient                   ...        0 min,  0.317 sec
 * total energy  :   -26.3654325 Eh     change       -0.1225859E-02 Eh
   gradient norm :     0.0034558 Eh/α   predicted    -0.9038845E-03 ( -26.27%)
   displ. norm   :     0.3109555 α      lambda       -0.7147012E-03
   maximum displ.:     0.2855723 α      in ANC's #7, #5, #3, ...

........................................................................
.............................. CYCLE    6 ..............................
........................................................................

 iter      E             dE          RMSdq      gap      omega  full diag
   1    -26.7808097 -0.267808E+02  0.720E-02    2.47       0.0  T
   2    -26.7808123 -0.255995E-05  0.381E-02    2.48       1.0  T
   3    -26.7808040  0.827842E-05  0.284E-02    2.47       1.0  T
   4    -26.7808148 -0.107758E-04  0.398E-03    2.47       6.1  T
   5    -26.7808148 -0.303572E-07  0.241E-03    2.47      10.1  T
   6    -26.7808149 -0.309134E-07  0.483E-04    2.47      50.2  T
   7    -26.7808149 -0.663182E-09  0.204E-04    2.47     118.6  T
     SCC iter.                  ...        0 min,  1.438 sec
     gradient                   ...        0 min,  0.548 sec
 * total energy  :   -26.3660163 Eh     change       -0.5837473E-03 Eh
   gradient norm :     0.0022974 Eh/α   predicted    -0.3918983E-03 ( -32.87%)
   displ. norm   :     0.2418133 α      lambda       -0.3695396E-03
   maximum displ.:     0.2168533 α      in ANC's #7, #5, #3, ...

........................................................................
.............................. CYCLE    7 ..............................
........................................................................

 iter      E             dE          RMSdq      gap      omega  full diag
   1    -26.7809496 -0.267809E+02  0.654E-02    2.47       0.0  T
   2    -26.7809519 -0.228440E-05  0.337E-02    2.47       1.0  T
   3    -26.7809467  0.515069E-05  0.215E-02    2.46       1.1  T
   4    -26.7809535 -0.675930E-05  0.287E-03    2.47       8.5  T
   5    -26.7809535 -0.509971E-08  0.166E-03    2.47      14.6  T
   6    -26.7809535 -0.157501E-07  0.396E-04    2.47      61.3  T
   7    -26.7809535 -0.444629E-09  0.161E-04    2.47     150.5  T
     SCC iter.                  ...        0 min,  1.964 sec
     gradient                   ...        0 min,  0.645 sec
 * total energy  :   -26.3663304 Eh     change       -0.3140972E-03 Eh
   gradient norm :     0.0021285 Eh/α   predicted    -0.1955738E-03 ( -37.73%)
   displ. norm   :     0.2069654 α      lambda       -0.2323478E-03
   maximum displ.:     0.1802470 α      in ANC's #7, #5, #3, ...

........................................................................
.............................. CYCLE    8 ..............................
........................................................................

 iter      E             dE          RMSdq      gap      omega  full diag
   1    -26.7811531 -0.267812E+02  0.662E-02    2.47       0.0  T
   2    -26.7811555 -0.244416E-05  0.337E-02    2.47       1.0  T
   3    -26.7811533  0.217067E-05  0.146E-02    2.46       1.7  T
   4    -26.7811566 -0.324202E-05  0.258E-03    2.47       9.4  T
   5    -26.7811566 -0.575959E-08  0.125E-03    2.47      19.3  T
   6    -26.7811566 -0.981954E-08  0.406E-04    2.47      59.7  T
   7    -26.7811566 -0.954198E-09  0.143E-04    2.47     169.4  T
     SCC iter.                  ...        0 min,  2.303 sec
     gradient                   ...        0 min,  0.499 sec
 * total energy  :   -26.3665314 Eh     change       -0.2010624E-03 Eh
   gradient norm :     0.0016375 Eh/α   predicted    -0.1211504E-03 ( -39.74%)
   displ. norm   :     0.2939044 α      lambda       -0.1652211E-03
   maximum displ.:     0.2476740 α      in ANC's #7, #3, #5, ...

........................................................................
.............................. CYCLE    9 ..............................
........................................................................

 iter      E             dE          RMSdq      gap      omega  full diag
   1    -26.7811743 -0.267812E+02  0.106E-01    2.46       0.0  T
   2    -26.7811805 -0.613193E-05  0.541E-02    2.47       1.0  T
   3    -26.7811776  0.289086E-05  0.187E-02    2.46       1.3  T
   4    -26.7811828 -0.525145E-05  0.407E-03    2.46       6.0  T
   5    -26.7811828 -0.177645E-07  0.172E-03    2.46      14.1  T
   6    -26.7811829 -0.219269E-07  0.564E-04    2.46      43.0  T
   7    -26.7811829 -0.201386E-08  0.219E-04    2.46     110.7  T
     SCC iter.                  ...        0 min,  2.381 sec
     gradient                   ...        0 min,  0.597 sec
 * total energy  :   -26.3667299 Eh     change       -0.1984858E-03 Eh
   gradient norm :     0.0012128 Eh/α   predicted    -0.8578640E-04 ( -56.78%)
   displ. norm   :     0.2487166 α      lambda       -0.9246849E-04
   maximum displ.:     0.2026766 α      in ANC's #7, #3, #5, ...

........................................................................
.............................. CYCLE   10 ..............................
........................................................................

 iter      E             dE          RMSdq      gap      omega  full diag
   1    -26.7812520 -0.267813E+02  0.941E-02    2.46       0.0  T
   2    -26.7812565 -0.456460E-05  0.485E-02    2.47       1.0  T
   3    -26.7812546  0.197726E-05  0.160E-02    2.46       1.5  T
   4    -26.7812583 -0.373053E-05  0.405E-03    2.47       6.0  T
   5    -26.7812583 -0.203521E-07  0.157E-03    2.46      15.5  T
   6    -26.7812583 -0.214352E-07  0.407E-04    2.46      59.6  T
   7    -26.7812583 -0.328932E-09  0.191E-04    2.46     126.7  T
     SCC iter.                  ...        0 min,  1.736 sec
     gradient                   ...        0 min,  0.422 sec
 * total energy  :   -26.3668317 Eh     change       -0.1017337E-03 Eh
   gradient norm :     0.0012244 Eh/α   predicted    -0.4750394E-04 ( -53.31%)
   displ. norm   :     0.2729059 α      lambda       -0.9122113E-04
   maximum displ.:     0.2138173 α      in ANC's #7, #3, #5, ...

........................................................................
.............................. CYCLE   11 ..............................
........................................................................

 iter      E             dE          RMSdq      gap      omega  full diag
   1    -26.7811751 -0.267812E+02  0.109E-01    2.46       0.0  T
   2    -26.7811809 -0.580125E-05  0.571E-02    2.47       1.0  T
   3    -26.7811765  0.437407E-05  0.215E-02    2.46       1.1  T
   4    -26.7811834 -0.684125E-05  0.516E-03    2.46       4.7  T
   5    -26.7811834 -0.277496E-07  0.206E-03    2.46      11.8  T
   6    -26.7811834 -0.361280E-07  0.459E-04    2.46      52.9  T
   7    -26.7811834 -0.845510E-10  0.224E-04    2.46     108.3  T
     SCC iter.                  ...        0 min,  1.422 sec
     gradient                   ...        0 min,  0.527 sec
 * total energy  :   -26.3669095 Eh     change       -0.7784410E-04 Eh
   gradient norm :     0.0013305 Eh/α   predicted    -0.4712103E-04 ( -39.47%)
   displ. norm   :     0.1797233 α      lambda       -0.3812650E-04
   maximum displ.:     0.1384008 α      in ANC's #7, #3, #5, ...

........................................................................
.............................. CYCLE   12 ..............................
........................................................................

 iter      E             dE          RMSdq      gap      omega  full diag
   1    -26.7812282 -0.267812E+02  0.679E-02    2.46       0.0  T
   2    -26.7812306 -0.236592E-05  0.352E-02    2.46       1.0  T
   3    -26.7812268  0.379112E-05  0.182E-02    2.46       1.3  T
   4    -26.7812319 -0.511300E-05  0.291E-03    2.46       8.3  T
   5    -26.7812319 -0.130490E-07  0.148E-03    2.46      16.4  T
   6    -26.7812319 -0.112713E-07  0.323E-04    2.46      75.1  T
   7    -26.7812319 -0.386397E-09  0.158E-04    2.46     153.4  T
     SCC iter.                  ...        0 min,  3.005 sec
     gradient                   ...        0 min,  0.532 sec
 * total energy  :   -26.3669564 Eh     change       -0.4692218E-04 Eh
   gradient norm :     0.0010936 Eh/α   predicted    -0.1933786E-04 ( -58.79%)
   displ. norm   :     0.2367184 α      lambda       -0.3450248E-04
   maximum displ.:     0.1797381 α      in ANC's #7, #3, #5, ...

   *** GEOMETRY OPTIMIZATION CONVERGED AFTER 12 ITERATIONS ***

------------------------------------------------------------------------
 total energy gain   :        -0.0217254 Eh      -13.6329 kcal/mol
 total RMSD          :         0.8474487 a0        0.4485 Å
 total power (kW/mol):        -4.7533296 (step)   -1.7916 (real)
------------------------------------------------------------------------

 ANCopt (total)                0 d,  0 h,  0 min, 31.838 sec
 optimizer setup                ...        0 min,  0.000 sec (  0.000%)
 model hessian                  ...        0 min,  0.001 sec (  0.004%)
 ANC generation                 ...        0 min,  0.000 sec (  0.001%)
 coordinate transformation      ...        0 min,  0.000 sec (  0.000%)
 single point calculation       ...        0 min, 31.276 sec ( 98.233%)
 optimization log               ...        0 min,  0.006 sec (  0.017%)
 hessian update                 ...        0 min,  0.552 sec (  1.735%)
 rational function              ...        0 min,  0.002 sec (  0.006%)

================
 final structure:
================
17
 xtb: 6.7.1 (edcfbbe)
C            2.38261920431800        0.10299427560195       -0.00227307236842
C            0.90134247141880        0.23885190231201       -0.00076258991672
C            0.14804569953699        1.42993938521536       -0.00249488939127
C           -1.16338727462116        1.02380412983534       -0.00039411325422
N           -1.14306945716368       -0.32452966091414        0.00250117121688
N            0.09697701470707       -0.81117770732436        0.00230678975954
H            2.84794545038452        1.08518003891079        0.00409826896787
H            2.71015327349378       -0.44196990786932       -0.88579723236876
H            2.71084636126167       -0.45419675367537        0.87324641060395
H            0.52231404078706        2.43297420254977       -0.00484391341172
H           -2.08049080700961        1.57773044523467       -0.00059597700435
H           -1.92635314704299       -0.95704762013224        0.00501589642084
C           -3.80044877819978       -3.04458285557598        0.00666127229139
N           -4.60186950527817       -4.00957505556356        0.00554865687119
N           -5.32430361254624       -4.87691715349076        0.00452390153495
H           -2.74514255495764       -3.23825089815857       -0.00053000973863
H           -4.19041274908845       -2.04517896695560       -0.00079556021246

 Bond Distances (Angstroems)
 ---------------------------
C1-C2=1.4875         C1-H7=1.0869         C1-H8=1.0885         C1-H9=1.0885         C2-C1=1.4875         C2-C3=1.4093         
C2-N6=1.3227         C3-C2=1.4093         C3-C4=1.3729         C3-H10=1.0706        C4-C3=1.3729         C4-N5=1.3485         
C4-H11=1.0714        N5-C4=1.3485         N5-N6=1.3321         N5-H12=1.0068        N6-C2=1.3227         N6-N5=1.3321         
H7-C1=1.0869         H8-C1=1.0885         H9-C1=1.0885         H10-C3=1.0706        H11-C4=1.0714        H12-N5=1.0068        
C13-N14=1.2544       C13-H16=1.0730       C13-H17=1.0728       N14-C13=1.2544       N14-N15=1.1288       N15-N14=1.1288       
H16-C13=1.0730       H17-C13=1.0728       
 C  H  Rav=1.0788 sigma=0.0080  Rmin=1.0706  Rmax=1.0885     7
 C  C  Rav=1.4232 sigma=0.0478  Rmin=1.3729  Rmax=1.4875     3
 N  H  Rav=1.0068 sigma=0.0000  Rmin=1.0068  Rmax=1.0068     1
 N  C  Rav=1.3085 sigma=0.0397  Rmin=1.2544  Rmax=1.3485     3
 N  N  Rav=1.2305 sigma=0.1017  Rmin=1.1288  Rmax=1.3321     2

 selected bond angles (degree)
 --------------------
H7-C1-C2=110.11                H8-C1-C2=110.25                H8-C1-H7=109.17                H9-C1-C2=110.26                
H9-C1-H7=109.20                H9-C1-H8=107.81                C3-C2-C1=127.55                N6-C2-C1=122.21                
N6-C2-C3=110.24                C4-C3-C2=105.10                H10-C3-C2=127.23               H10-C3-C4=127.67               
N5-C4-C3=106.34                H11-C4-C3=131.66               H11-C4-N5=122.00               N6-N5-C4=112.29                
H12-N5-C4=128.06               H12-N5-N6=119.65               N5-N6-C2=106.03                

 selected dihedral angles (degree)
 ---------------------------------
C3-C2-C1-H7=  0.51            C3-C2-C1-H8=239.99            C3-C2-C1-H9=121.07            N6-C2-C1-H7=180.50            
N6-C2-C1-H8= 59.98            N6-C2-C1-H9=301.05            C4-C3-C2-C1=179.98            C4-C3-C2-N6=  0.00            
H10-C3-C2-C1=359.98           H10-C3-C2-N6=179.99           N5-C4-C3-C2=  0.00            N5-C4-C3-H10=180.01           
H11-C4-C3-C2=180.00           H11-C4-C3-H10=  0.00          N6-N5-C4-C3=  0.00            N6-N5-C4-H11=180.00           
H12-N5-C4-C3=179.97           H12-N5-C4-H11=  0.00          N5-N6-C2-C1=180.01            N5-N6-C2-C3=  0.00            
C2-N6-N5-C4=  0.00            C2-N6-N5-H12=180.02           

 CMA Distance (Angstroems)
 ---------------------------
R(CMA):  6.3647
           -------------------------------------------------
          |                Final Singlepoint                |
           -------------------------------------------------

          ...................................................
          :                      SETUP                      :
          :.................................................:
          :  # basis functions                  44          :
          :  # atomic orbitals                  44          :
          :  # shells                           26          :
          :  # electrons                        48          :
          :  max. iterations                   250          :
          :  Hamiltonian                  GFN2-xTB          :
          :  restarted?                      false          :
          :  GBSA solvation                  false          :
          :  PC potential                    false          :
          :  electronic temp.          300.0000000     K    :
          :  accuracy                    1.0000000          :
          :  -> integral cutoff          0.2500000E+02      :
          :  -> integral neglect         0.1000000E-07      :
          :  -> SCF convergence          0.1000000E-05 Eh   :
          :  -> wf. convergence          0.1000000E-03 e    :
          :  Broyden damping             0.4000000          :
          :  net charge                          0          :
          :  unpaired electrons                  0          :
          ...................................................

 iter      E             dE          RMSdq      gap      omega  full diag
   1    -26.7812319 -0.267812E+02  0.445E-05    2.46       0.0  T
   2    -26.7812319 -0.811085E-11  0.245E-05    2.46     988.1  T
   3    -26.7812319 -0.325073E-11  0.137E-05    2.46    1766.5  T

   *** convergence criteria satisfied after 3 iterations ***

         #    Occupation            Energy/Eh            Energy/eV
      -------------------------------------------------------------
         1        2.0000           -0.7036590             -19.1475
       ...           ...                  ...                  ...
        18        2.0000           -0.4675499             -12.7227
        19        2.0000           -0.4623474             -12.5811
        20        2.0000           -0.4510248             -12.2730
        21        2.0000           -0.4004280             -10.8962
        22        2.0000           -0.3938679             -10.7177
        23        2.0000           -0.3880486             -10.5593
        24        2.0000           -0.3739169             -10.1748 (HOMO)
        25                         -0.2834873              -7.7141 (LUMO)
        26                         -0.2103176              -5.7230
        27                         -0.2003648              -5.4522
        28                         -0.1545652              -4.2059
        29                          0.0095919               0.2610
       ...                                ...                  ...
        44                          1.0524673              28.6391
      -------------------------------------------------------------
                  HL-Gap            0.0904296 Eh            2.4607 eV
             Fermi-level           -0.3287021 Eh           -8.9444 eV

 SCC (total)                   0 d,  0 h,  0 min,  1.822 sec
 SCC setup                      ...        0 min,  0.042 sec (  2.312%)
 Dispersion                     ...        0 min,  0.105 sec (  5.790%)
 classical contributions        ...        0 min,  0.111 sec (  6.083%)
 integral evaluation            ...        0 min,  0.150 sec (  8.211%)
 iterations                     ...        0 min,  0.958 sec ( 52.582%)
 molecular gradient             ...        0 min,  0.456 sec ( 25.014%)
 printout                       ...        0 min,  0.000 sec (  0.005%)

         :::::::::::::::::::::::::::::::::::::::::::::::::::::
         ::                     SUMMARY                     ::
         :::::::::::::::::::::::::::::::::::::::::::::::::::::
         :: total energy             -26.366956424258 Eh    ::
         :: gradient norm              0.001094978701 Eh/a0 ::
         :: HOMO-LUMO gap              2.460713324255 eV    ::
         ::.................................................::
         :: SCC energy               -26.781318524977 Eh    ::
         :: -> isotropic ES            0.017254280785 Eh    ::
         :: -> anisotropic ES          0.004533674642 Eh    ::
         :: -> anisotropic XC          0.037831293543 Eh    ::
         :: -> dispersion             -0.009763297755 Eh    ::
         :: repulsion energy           0.414362100720 Eh    ::
         :: add. restraining           0.000000000000 Eh    ::
         :: total charge               0.000000000000 e     ::
         :::::::::::::::::::::::::::::::::::::::::::::::::::::

           -------------------------------------------------
          |                Property Printout                |
           -------------------------------------------------

    * Orbital Energies and Occupations

         #    Occupation            Energy/Eh            Energy/eV
      -------------------------------------------------------------
         1        2.0000           -0.7036590             -19.1475
       ...           ...                  ...                  ...
        12        2.0000           -0.5444259             -14.8146
        13        2.0000           -0.5373034             -14.6208
        14        2.0000           -0.4945707             -13.4580
        15        2.0000           -0.4858642             -13.2210
        16        2.0000           -0.4796577             -13.0521
        17        2.0000           -0.4755294             -12.9398
        18        2.0000           -0.4675499             -12.7227
        19        2.0000           -0.4623474             -12.5811
        20        2.0000           -0.4510248             -12.2730
        21        2.0000           -0.4004280             -10.8962
        22        2.0000           -0.3938679             -10.7177
        23        2.0000           -0.3880486             -10.5593
        24        2.0000           -0.3739169             -10.1748 (HOMO)
        25                         -0.2834873              -7.7141 (LUMO)
        26                         -0.2103176              -5.7230
        27                         -0.2003648              -5.4522
        28                         -0.1545652              -4.2059
        29                          0.0095919               0.2610
        30                          0.1002160               2.7270
        31                          0.1121706               3.0523
        32                          0.1368645               3.7243
        33                          0.1842511               5.0137
        34                          0.1887501               5.1362
        35                          0.2101524               5.7185
       ...                                ...                  ...
        44                          1.0524673              28.6391
      -------------------------------------------------------------
                  HL-Gap            0.0904296 Eh            2.4607 eV
             Fermi-level           -0.3287021 Eh           -8.9444 eV

     #   Z          covCN         q      C6AA      α(0)
     1   6 C        3.755    -0.110    22.669     6.789
     2   6 C        3.155     0.074    26.067     8.349
     3   6 C        3.031    -0.079    29.943     8.976
     4   6 C        3.006    -0.008    28.206     8.712
     5   7 N        3.001     0.001    21.245     6.846
     6   7 N        2.000    -0.239    27.040     7.712
     7   1 H        0.925     0.042     2.427     2.436
     8   1 H        0.925     0.052     2.292     2.367
     9   1 H        0.925     0.052     2.291     2.367
    10   1 H        0.926     0.024     2.666     2.553
    11   1 H        0.926     0.030     2.588     2.516
    12   1 H        0.860     0.159     1.343     1.815
    13   6 C        2.771    -0.153    31.922     9.253
    14   7 N        1.891     0.215    18.293     6.341
    15   7 N        0.989    -0.204    25.000     7.189
    16   1 H        0.926     0.078     2.005     2.214
    17   1 H        0.926     0.067     2.118     2.276

 Mol. C6AA /au·bohr⁶  :       3267.521979
 Mol. C8AA /au·bohr⁸  :      73950.991671
 Mol. α(0) /au        :         88.709763


Wiberg/Mayer (AO) data.
largest (>0.10) Wiberg bond orders for each atom

 ---------------------------------------------------------------------------
     #   Z sym  total        # sym  WBO       # sym  WBO       # sym  WBO
 ---------------------------------------------------------------------------
     1   6 C    3.997 --     2 C    1.029     7 H    0.986     9 H    0.972
                             8 H    0.972
     2   6 C    3.978 --     6 N    1.495     3 C    1.333     1 C    1.029
     3   6 C    3.978 --     4 C    1.522     2 C    1.333    10 H    0.975
     4   6 C    3.958 --     3 C    1.522     5 N    1.279    11 H    0.969
                             6 N    0.168
     5   7 N    3.617 --     4 C    1.279     6 N    1.202    12 H    0.941
     6   7 N    2.957 --     2 C    1.495     5 N    1.202     4 C    0.168
     7   1 H    0.998 --     1 C    0.986
     8   1 H    0.997 --     1 C    0.972
     9   1 H    0.997 --     1 C    0.972
    10   1 H    0.999 --     3 C    0.975
    11   1 H    0.999 --     4 C    0.969
    12   1 H    0.975 --     5 N    0.941
    13   6 C    3.867 --    14 N    1.534    17 H    0.929    16 H    0.926
                            15 N    0.475
    14   7 N    3.803 --    15 N    2.255    13 C    1.534
    15   7 N    2.847 --    14 N    2.255    13 C    0.475
    16   1 H    0.994 --    13 C    0.926
    17   1 H    0.996 --    13 C    0.929
Note: The following floating-point exceptions are signalling: IEEE_UNDERFLOW_FLAG IEEE_DENORMAL
normal termination of xtb
 ---------------------------------------------------------------------------

Topologies differ in total number of bonds
Writing topology from bond orders to xtbtopo.mol

molecular dipole:
                 x           y           z       tot (Debye)
 q only:        0.015       0.457      -0.001
   full:       -0.012       1.009      -0.006       2.566
molecular quadrupole (traceless):
                xx          xy          yy          xz          yz          zz
 q only:        1.208      -8.602      -5.126       0.008       0.014       3.918
  q+dip:        1.552     -14.267      -7.282       0.037       0.039       5.730
   full:        1.192     -15.132      -8.396       0.040       0.044       7.203

           -------------------------------------------------
          |                Geometry Summary                 |
           -------------------------------------------------

      molecular mass/u    :      124.1440183
   center of mass at/Å    :       -1.4036270      -1.1714261       0.0016673
  moments of inertia/u·Å² :        0.1012194E+03   0.1267760E+04   0.1365860E+04
rotational constants/cm⁻¹ :        0.1665455E+00   0.1329718E-01   0.1234214E-01

 * 16 selected distances

     #   Z          #   Z                                           value/Å
     1   6 C        2   6 C                                       1.4874948 (max)
     2   6 C        3   6 C                                       1.4093079
     3   6 C        4   6 C                                       1.3728828
     4   6 C        5   7 N                                       1.3484901
     2   6 C        6   7 N                                       1.3227153
     5   7 N        6   7 N                                       1.3321193
     1   6 C        7   1 H                                       1.0868570
     1   6 C        8   1 H                                       1.0885218
     1   6 C        9   1 H                                       1.0884528
     3   6 C       10   1 H                                       1.0705893
     4   6 C       11   1 H                                       1.0714073
     5   7 N       12   1 H                                       1.0067864 (min)
    13   6 C       14   7 N                                       1.2543870
    14   7 N       15   7 N                                       1.1288023
    13   6 C       16   1 H                                       1.0729541
    13   6 C       17   1 H                                       1.0728168

 * 5 distinct bonds (by element types)

   Z      Z             #   av. dist./Å        max./Å        min./Å
   1 H    6 C           7     1.0787999     1.0885218     1.0705893
   6 C    6 C           3     1.4232285     1.4874948     1.3728828
   1 H    7 N           1     1.0067864     1.0067864     1.0067864
   6 C    7 N           3     1.3085308     1.3484901     1.2543870
   7 N    7 N           2     1.2304608     1.3321193     1.1288023


optimized geometry written to: xtbopt.xyz


           -------------------------------------------------
          | TOTAL ENERGY              -26.366956424258 Eh   |
          | GRADIENT NORM               0.001094978701 Eh/α |
          | HOMO-LUMO GAP               2.460713324255 eV   |
           -------------------------------------------------

------------------------------------------------------------------------
 * finished run on 2026/08/20 at 02:28:34.039     
------------------------------------------------------------------------
 total:
 * wall-time:     0 d,  0 h,  0 min, 37.955 sec
 *  cpu-time:     0 d,  0 h,  1 min, 54.330 sec
 * ratio c/w:     3.012 speedup
 SCF:
 * wall-time:     0 d,  0 h,  0 min,  3.744 sec
 *  cpu-time:     0 d,  0 h,  0 min, 11.412 sec
 * ratio c/w:     3.048 speedup
 ANC optimizer:
 * wall-time:     0 d,  0 h,  0 min, 33.694 sec
 *  cpu-time:     0 d,  0 h,  1 min, 41.763 sec
 * ratio c/w:     3.020 speedup

