17
Properties=species:S:1:pos:R:3 pbc="F F F"
C        2.20842000       0.02319000      -0.00219000
C        0.72727000       0.07185000      -0.00042000
C       -0.10716000       1.21297000      -0.00071000
C       -1.38756000       0.71582000       0.00024000
N       -1.26252000      -0.64167000       0.00095000
N        0.01291000      -1.06084000       0.00089000
H        2.63500000       1.03136000       0.00197000
H        2.57534000      -0.49563000      -0.89364000
H        2.57758000      -0.50372000       0.88346000
H        0.18849000       2.25236000      -0.00128000
H       -2.35538000       1.19571000      -0.00043000
H       -1.99754000      -1.34082000       0.00157000
C       -3.29130337      -2.57144592       0.00266131
N       -4.24048417      -3.47430537       0.00346196
N       -5.06648883      -4.25999985       0.00415870
H       -2.26505170      -2.93866093       0.00246303
H       -3.60675630      -1.52812013       0.00226001
