17
Properties=species:S:1:pos:R:3 energy:=T -17.449565472625=T gnorm:=T 0.001224294001=T xtb:=T 6.7.1=T (edcfbbe)=T pbc="F F F"
C        2.21651017       0.03051857      -0.00206047
C        0.72959198       0.06723620      -0.00086256
C       -0.10528548       1.20132021      -0.00112608
C       -1.38503570       0.70340293       0.00011911
N       -1.26986893      -0.63964852       0.00094410
N        0.00097599      -1.03653481       0.00031650
H        2.61674713       1.04092607       0.00261345
H        2.57894446      -0.49376919      -0.88432463
H        2.58015077      -0.50270568       0.87427415
H        0.19626824       2.22853816      -0.00197976
H       -2.33949403       1.18952284       0.00047074
H       -2.08710733      -1.40549442       0.00214680
C       -2.87515865      -2.14398869       0.00330655
N       -3.83833248      -3.04659279       0.00472403
N       -4.67016442      -3.82611452       0.00594821
H       -1.90909974      -2.64883804       0.00299125
H       -3.31628781      -1.14722010       0.00284934
