17
 xtb: 6.7.1 (edcfbbe)
C            2.51476569081206        0.20099928010834       -0.00858920091688
C            1.03277852070070        0.33023320867913       -0.00356550652462
C            0.27090813646306        1.51582988432160       -0.02086592116262
C           -1.03820469016246        1.10124092353367       -0.01718979266939
N           -1.00922008911303       -0.24550491514069        0.00203076299213
N            0.23347756300375       -0.72486993498253        0.01102972182179
H            2.97335895884484        1.21077084082835        0.03709120291401
H            2.85761270568675       -0.28926774605950       -0.90343639045881
H            2.85479853382159       -0.36270366570616        0.85141102085382
H            0.62062970273139        2.52336324596770       -0.00773732692776
H           -1.96632741867240        1.62761552118878       -0.00956909373638
H           -1.76576734855316       -0.91050041719455       -0.01259815623370
C           -3.72493540578852       -2.91427499658162        0.06842019541725
N           -4.60891368482777       -3.80213881053498        0.01089685108798
N           -5.41152395121675       -4.59534442445374       -0.04958167154997
H           -2.69330452896453       -3.21232022540077        0.03063831146504
H           -4.01978227226009       -1.88757992349722        0.05456735209213
