19
 energy: -31.345802368854 gnorm: 0.000598116567 xtb: 6.7.1 (edcfbbe)
C            2.59662603303268       -0.64845428855077       -0.03068990252425
N            1.18794037349721       -0.91333900914505       -0.02518020237246
N            0.71663629603494       -2.12508438553207       -0.27849929118933
C           -0.59982300780034       -2.03544635943867       -0.19232440902421
C           -1.00520735857662       -0.73058135966876        0.12686430123008
C           -2.37726044745974       -0.19256742595961        0.30785016790320
C            0.18807774728120       -0.03193858230560        0.22274589914212
S            0.53613859708265        1.68814810859383        0.62990460222361
O           -0.35889291868057        2.04724873446573        1.71415740695084
N           -0.23927471666319        2.29354871608443       -0.79806159581773
H            2.90552397632274       -0.19312234896119        0.91135983748397
H            2.86574170717846        0.01760339733543       -0.85346631598020
H            3.10682532665698       -1.60073377470090       -0.16084824005962
H           -1.21194585261886       -2.89981429057454       -0.35491814886955
H           -3.08008994418675       -0.99927767778724        0.50059400520559
H           -2.69284290768627        0.34001138895438       -0.58945732294900
H           -2.39322011958588        0.51058149276716        1.13723394413100
H            0.35847570514527        2.21275767561371       -1.60944819069579
H           -0.50342948897394        3.26045998880971       -0.65781754478830
