      -----------------------------------------------------------      
     |                   =====================                   |     
     |                           x T B                           |     
     |                   =====================                   |     
     |                         S. Grimme                         |     
     |          Mulliken Center for Theoretical Chemistry        |     
     |                    University of Bonn                     |     
      -----------------------------------------------------------      

   * xtb version 6.7.1 (edcfbbe) compiled by 'conda@3ef47c1a292c' on 2024-11-25

   xtb is free software: you can redistribute it and/or modify it under
   the terms of the GNU Lesser General Public License as published by
   the Free Software Foundation, either version 3 of the License, or
   (at your option) any later version.
   
   xtb is distributed in the hope that it will be useful,
   but WITHOUT ANY WARRANTY; without even the implied warranty of
   MERCHANTABILITY or FITNESS FOR A PARTICULAR PURPOSE.  See the
   GNU Lesser General Public License for more details.
   
   Cite this work as:
   * C. Bannwarth, E. Caldeweyher, S. Ehlert, A. Hansen, P. Pracht,
     J. Seibert, S. Spicher, S. Grimme, WIREs Comput. Mol. Sci., 2020, 11,
     e01493. DOI: 10.1002/wcms.1493
   
   for GFN2-xTB:
   * C. Bannwarth, S. Ehlert and S. Grimme., J. Chem. Theory Comput., 2019,
     15, 1652-1671. DOI: 10.1021/acs.jctc.8b01176
   for GFN1-xTB:
   * S. Grimme, C. Bannwarth, P. Shushkov, J. Chem. Theory Comput., 2017,
     13, 1989-2009. DOI: 10.1021/acs.jctc.7b00118
   for GFN0-xTB:
   * P. Pracht, E. Caldeweyher, S. Ehlert, S. Grimme, ChemRxiv, 2019, preprint.
     DOI: 10.26434/chemrxiv.8326202.v1
   for GFN-FF:
   * S. Spicher and S. Grimme, Angew. Chem. Int. Ed., 2020, 59, 15665-15673.
     DOI: 10.1002/anie.202004239
   
   for ALPB and GBSA implicit solvation:
   * S. Ehlert, M. Stahn, S. Spicher, S. Grimme, J. Chem. Theory Comput.,
     2021, 17, 4250-4261. DOI: 10.1021/acs.jctc.1c00471
   
   for ddCOSMO and CPCM-X implicit solvation:
   * M. Stahn, S. Ehlert, S. Grimme, J. Phys. Chem. A,
     2023, XX, XXXX-XXXX. DOI: 10.1021/acs.jpca.3c04382
   
   for DFT-D4:
   * E. Caldeweyher, C. Bannwarth and S. Grimme, J. Chem. Phys., 2017,
     147, 034112. DOI: 10.1063/1.4993215
   * E. Caldeweyher, S. Ehlert, A. Hansen, H. Neugebauer, S. Spicher,
     C. Bannwarth and S. Grimme, J. Chem. Phys., 2019, 150, 154122.
     DOI: 10.1063/1.5090222
   * E. Caldeweyher, J.-M. Mewes, S. Ehlert and S. Grimme, Phys. Chem. Chem. Phys.
     2020, 22, 8499-8512. DOI: 10.1039/D0CP00502A
   
   for sTDA-xTB:
   * S. Grimme and C. Bannwarth, J. Chem. Phys., 2016, 145, 054103.
     DOI: 10.1063/1.4959605
   
   in the mass-spec context:
   * V. Asgeirsson, C. Bauer and S. Grimme, Chem. Sci., 2017, 8, 4879.
     DOI: 10.1039/c7sc00601b
   * J. Koopman and S. Grimme, ACS Omega 2019, 4, 12, 15120-15133.
     DOI: 10.1021/acsomega.9b02011
   
   for metadynamics refer to:
   * S. Grimme, J. Chem. Theory Comput., 2019, 155, 2847-2862
     DOI: 10.1021/acs.jctc.9b00143
   
   for SPH calculations refer to:
   * S. Spicher and S. Grimme, J. Chem. Theory Comput., 2021, 17, 1701-1714
     DOI: 10.1021/acs.jctc.0c01306
   
   for ONIOM refer to:
   * C. Plett, A. Katbashev, S. Ehlert, S. Grimme, M. Bursch,
     Phys. Chem. Chem. Phys., 2023, 25, 17860-17868. DOI: 10.1039/D3CP02178E
   
   for DIPRO refer to:
   * J. Kohn, N. Gildemeister, S. Grimme, D. Fazzi, A. Hansen,
     J. Chem. Phys., 2023, just accepted.
   
   for PTB refer to:
   * S. Grimme, M. Mueller, A. Hansen, J. Chem. Phys., 2023, 158, 124111.
     DOI: 10.1063/5.0137838
   
   with help from (in alphabetical order)
   P. Atkinson, C. Bannwarth, F. Bohle, G. Brandenburg, E. Caldeweyher
   M. Checinski, S. Dohm, S. Ehlert, S. Ehrlich, I. Gerasimov, C. Hölzer
   A. Katbashev, J. Kohn, J. Koopman, C. Lavigne, S. Lehtola, F. März, M. Müller,
   F. Musil, H. Neugebauer, J. Pisarek, C. Plett, P. Pracht, F. Pultar,
   J. Seibert, P. Shushkov, S. Spicher, M. Stahn, M. Steiner, T. Strunk,
   J. Stückrath, T. Rose, and J. Unsleber
   
 * started run on 2026/08/20 at 09:38:16.361     
   ID    Z sym.   atoms
    1    7 N      1, 2, 9
    2    6 C      3-6
    3   16 S      7
    4    8 O      8
    5    1 H      10-16

           -------------------------------------------------
          |                Calculation Setup                |
           -------------------------------------------------

          program call               : /h/399/yunhengzou/micromamba/envs/el-agente/bin/xtb pathway_B_substrate_raw.xyz --opt --gfn 2 -P 4 --chrg 0 --uhf 0
          coordinate file            : pathway_B_substrate_raw.xyz
          omp threads                :                     4


           -------------------------------------------------
          |                 G F N 2 - x T B                 |
           -------------------------------------------------

        Reference                      10.1021/acs.jctc.8b01176
      * Hamiltonian:
        H0-scaling (s, p, d)           1.850000    2.230000    2.230000
        zeta-weighting                 0.500000
      * Dispersion:
        s8                             2.700000
        a1                             0.520000
        a2                             5.000000
        s9                             5.000000
      * Repulsion:
        kExp                           1.500000    1.000000
        rExp                           1.000000
      * Coulomb:
        alpha                          2.000000
        third order                    shell-resolved
        anisotropic                    true
        a3                             3.000000
        a5                             4.000000
        cn-shift                       1.200000
        cn-exp                         4.000000
        max-rad                        5.000000


          ...................................................
          :                      SETUP                      :
          :.................................................:
          :  # basis functions                  49          :
          :  # atomic orbitals                  48          :
          :  # shells                           26          :
          :  # electrons                        50          :
          :  max. iterations                   250          :
          :  Hamiltonian                  GFN2-xTB          :
          :  restarted?                      false          :
          :  GBSA solvation                  false          :
          :  PC potential                    false          :
          :  electronic temp.          300.0000000     K    :
          :  accuracy                    1.0000000          :
          :  -> integral cutoff          0.2500000E+02      :
          :  -> integral neglect         0.1000000E-07      :
          :  -> SCF convergence          0.1000000E-05 Eh   :
          :  -> wf. convergence          0.1000000E-03 e    :
          :  Broyden damping             0.4000000          :
          :  net charge                          0          :
          :  unpaired electrons                  0          :
          ...................................................

 iter      E             dE          RMSdq      gap      omega  full diag
   1    -28.3276542 -0.283277E+02  0.471E+00    4.42       0.0  T
   2    -28.4156959 -0.880417E-01  0.316E+00    3.59       1.0  T
   3    -28.4297526 -0.140567E-01  0.176E+00    3.65       1.0  T
   4    -28.4298525 -0.998308E-04  0.686E-01    3.50       1.0  T
   5    -28.4331132 -0.326072E-02  0.266E-01    3.54       1.0  T
   6    -28.4330947  0.184715E-04  0.102E-01    3.57       1.0  T
   7    -28.4331760 -0.812964E-04  0.454E-02    3.57       1.0  T
   8    -28.4331804 -0.437320E-05  0.265E-02    3.57       1.0  T
   9    -28.4331806 -0.268787E-06  0.892E-03    3.57       2.8  T
  10    -28.4331813 -0.670901E-06  0.352E-03    3.57       7.1  T
  11    -28.4331813 -0.165253E-07  0.174E-03    3.57      14.4  T
  12    -28.4331813 -0.515226E-08  0.395E-04    3.57      63.4  T
  13    -28.4331813 -0.216883E-09  0.942E-05    3.57     265.3  T

   *** convergence criteria satisfied after 13 iterations ***

         #    Occupation            Energy/Eh            Energy/eV
      -------------------------------------------------------------
         1        2.0000           -0.7495343             -20.3959
       ...           ...                  ...                  ...
        19        2.0000           -0.4588546             -12.4861
        20        2.0000           -0.4366486             -11.8818
        21        2.0000           -0.4176536             -11.3649
        22        2.0000           -0.4135735             -11.2539
        23        2.0000           -0.4098633             -11.1529
        24        2.0000           -0.4027497             -10.9594
        25        2.0000           -0.3771660             -10.2632 (HOMO)
        26                         -0.2458394              -6.6896 (LUMO)
        27                         -0.2049872              -5.5780
        28                         -0.1743948              -4.7455
        29                         -0.1381234              -3.7585
        30                         -0.1108071              -3.0152
       ...                                ...                  ...
        48                          0.7719621              21.0062
      -------------------------------------------------------------
                  HL-Gap            0.1313266 Eh            3.5736 eV
             Fermi-level           -0.3115027 Eh           -8.4764 eV

 SCC (total)                   0 d,  0 h,  0 min,  1.607 sec
 SCC setup                      ...        0 min,  0.001 sec (  0.070%)
 Dispersion                     ...        0 min,  0.048 sec (  2.958%)
 classical contributions        ...        0 min,  0.001 sec (  0.059%)
 integral evaluation            ...        0 min,  0.065 sec (  4.031%)
 iterations                     ...        0 min,  1.329 sec ( 82.666%)
 molecular gradient             ...        0 min,  0.164 sec ( 10.205%)
 printout                       ...        0 min,  0.000 sec (  0.010%)

         :::::::::::::::::::::::::::::::::::::::::::::::::::::
         ::                     SUMMARY                     ::
         :::::::::::::::::::::::::::::::::::::::::::::::::::::
         :: total energy             -28.153872825889 Eh    ::
         :: gradient norm              0.113768582399 Eh/a0 ::
         :: HOMO-LUMO gap              3.573578067955 eV    ::
         ::.................................................::
         :: SCC energy               -28.433118580119 Eh    ::
         :: -> isotropic ES            0.060164725718 Eh    ::
         :: -> anisotropic ES          0.005323710123 Eh    ::
         :: -> anisotropic XC          0.019084494914 Eh    ::
         :: -> dispersion             -0.014389058824 Eh    ::
         :: repulsion energy           0.279245754230 Eh    ::
         :: add. restraining           0.000000000000 Eh    ::
         :: total charge               0.000000000000 e     ::
         :::::::::::::::::::::::::::::::::::::::::::::::::::::

      ----------------------------------------------------------- 
     |                   =====================                   |
     |                        A N C O P T                        |
     |                   =====================                   |
     |               Approximate Normal Coordinate               |
     |                Rational Function Optimizer                |
      ----------------------------------------------------------- 
      ----------------------------------------------------------- 
     |                   =====================                   |
     |                        A N C O P T                        |
     |                   =====================                   |
     |               Approximate Normal Coordinate               |
     |                Rational Function Optimizer                |
      ----------------------------------------------------------- 

          ...................................................
          :                      SETUP                      :
          :.................................................:
          :   optimization level            normal          :
          :   max. optcycles                   200          :
          :   ANC micro-cycles                  20          :
          :   degrees of freedom                42          :
          :.................................................:
          :   RF solver                   davidson          :
          :   write xtbopt.log                true          :
          :   linear?                        false          :
          :   energy convergence         0.5000000E-05 Eh   :
          :   grad. convergence          0.1000000E-02 Eh/α :
          :   maxmium RF displ.          1.0000000          :
          :   Hlow (freq-cutoff)         0.1000000E-01      :
          :   Hmax (freq-cutoff)         5.0000000          :
          :   S6 in model hess.         20.0000000          :
          ...................................................

generating ANC from exact Hessian ...
Using Lindh-Hessian (1995)
 Shifting diagonal of input Hessian by    7.5252555310701737E-003
 Lowest  eigenvalues of input Hessian
    0.000000    0.000000    0.000000    0.000000    0.000000    0.000000
    0.010000    0.011672    0.015327    0.017557    0.019430    0.022877
    0.029275    0.039584    0.052255    0.058115    0.065330    0.076725
 Highest eigenvalues
    1.540713    1.813213    1.831016    2.041528    2.100343    2.141871


........................................................................
.............................. CYCLE    1 ..............................
........................................................................

 iter      E             dE          RMSdq      gap      omega  full diag
   1    -28.4331813 -0.284332E+02  0.346E-05    3.57       0.0  T
   2    -28.4331813 -0.873968E-12  0.195E-05    3.57    1282.5  T
   3    -28.4331813  0.390799E-13  0.121E-05    3.57    2071.6  T
     SCC iter.                  ...        0 min,  0.621 sec
     gradient                   ...        0 min,  0.266 sec
 * total energy  :   -28.1538728 Eh     change       -0.1867306E-10 Eh
   gradient norm :     0.1137691 Eh/α   predicted     0.0000000E+00 (-100.00%)
   displ. norm   :     0.2902930 α      lambda       -0.1709787E-01
   maximum displ.:     0.1227381 α      in ANC's #7, #6, #23, ...

........................................................................
.............................. CYCLE    2 ..............................
........................................................................

 iter      E             dE          RMSdq      gap      omega  full diag
   1    -28.4594342 -0.284594E+02  0.468E-01    3.69       0.0  T
   2    -28.4597993 -0.365115E-03  0.288E-01    3.77       1.0  T
   3    -28.4598191 -0.198586E-04  0.123E-01    3.77       1.0  T
   4    -28.4598223 -0.320403E-05  0.370E-02    3.79       1.0  T
   5    -28.4598226 -0.210619E-06  0.213E-02    3.78       1.2  T
   6    -28.4598262 -0.369210E-05  0.503E-03    3.78       5.0  T
   7    -28.4598263 -0.231615E-07  0.211E-03    3.78      11.9  T
   8    -28.4598263 -0.151423E-07  0.101E-03    3.78      24.7  T
   9    -28.4598263 -0.231789E-08  0.320E-04    3.78      78.2  T
  10    -28.4598263 -0.158899E-09  0.156E-04    3.78     160.2  T
     SCC iter.                  ...        0 min,  1.367 sec
     gradient                   ...        0 min,  0.186 sec
 * total energy  :   -28.1652615 Eh     change       -0.1138868E-01 Eh
   gradient norm :     0.0624396 Eh/α   predicted    -0.9269352E-02 ( -18.61%)
   displ. norm   :     0.1917599 α      lambda       -0.5396046E-02
   maximum displ.:     0.1216755 α      in ANC's #8, #13, #7, ...

........................................................................
.............................. CYCLE    3 ..............................
........................................................................

 iter      E             dE          RMSdq      gap      omega  full diag
   1    -28.4774851 -0.284775E+02  0.295E-01    3.78       0.0  T
   2    -28.4777847 -0.299605E-03  0.183E-01    3.86       1.0  T
   3    -28.4777990 -0.143169E-04  0.102E-01    3.86       1.0  T
   4    -28.4777928  0.616857E-05  0.319E-02    3.87       1.0  T
   5    -28.4778017 -0.884745E-05  0.108E-02    3.87       2.3  T
   6    -28.4778018 -0.970984E-07  0.301E-03    3.87       8.3  T
   7    -28.4778018 -0.149502E-07  0.121E-03    3.87      20.6  T
   8    -28.4778018 -0.910364E-08  0.519E-04    3.87      48.2  T
   9    -28.4778018 -0.194660E-09  0.215E-04    3.87     116.5  T
     SCC iter.                  ...        0 min,  1.297 sec
     gradient                   ...        0 min,  0.073 sec
 * total energy  :   -28.1683314 Eh     change       -0.3069895E-02 Eh
   gradient norm :     0.0181089 Eh/α   predicted    -0.2797234E-02 (  -8.88%)
   displ. norm   :     0.1247964 α      lambda       -0.6336542E-03
   maximum displ.:     0.0874648 α      in ANC's #1, #8, #2, ...

........................................................................
.............................. CYCLE    4 ..............................
........................................................................

 iter      E             dE          RMSdq      gap      omega  full diag
   1    -28.4778629 -0.284779E+02  0.912E-02    3.86       0.0  T
   2    -28.4778785 -0.155456E-04  0.566E-02    3.88       1.0  T
   3    -28.4778793 -0.838161E-06  0.276E-02    3.89       1.0  T
   4    -28.4778791  0.232765E-06  0.996E-03    3.89       2.5  T
   5    -28.4778800 -0.975365E-06  0.366E-03    3.89       6.8  T
   6    -28.4778801 -0.305978E-07  0.123E-03    3.89      20.4  T
   7    -28.4778801 -0.176366E-08  0.518E-04    3.89      48.3  T
   8    -28.4778801 -0.455611E-09  0.303E-04    3.89      82.6  T
     SCC iter.                  ...        0 min,  1.110 sec
     gradient                   ...        0 min,  0.169 sec
 * total energy  :   -28.1687704 Eh     change       -0.4390371E-03 Eh
   gradient norm :     0.0074663 Eh/α   predicted    -0.3217630E-03 ( -26.71%)
   displ. norm   :     0.1655123 α      lambda       -0.3215555E-03
   maximum displ.:     0.1365280 α      in ANC's #1, #2, #8, ...

........................................................................
.............................. CYCLE    5 ..............................
........................................................................

 iter      E             dE          RMSdq      gap      omega  full diag
   1    -28.4771411 -0.284771E+02  0.910E-02    3.88       0.0  T
   2    -28.4771487 -0.760877E-05  0.464E-02    3.89       1.0  T
   3    -28.4771489 -0.259301E-06  0.191E-02    3.89       1.3  T
   4    -28.4771492 -0.288891E-06  0.825E-03    3.89       3.0  T
   5    -28.4771497 -0.494601E-06  0.370E-03    3.90       6.8  T
   6    -28.4771498 -0.385518E-07  0.137E-03    3.90      18.2  T
   7    -28.4771498 -0.772311E-08  0.702E-04    3.90      35.6  T
   8    -28.4771498 -0.883219E-09  0.287E-04    3.90      87.0  T
     SCC iter.                  ...        0 min,  0.977 sec
     gradient                   ...        0 min,  0.183 sec
 * total energy  :   -28.1689961 Eh     change       -0.2256426E-03 Eh
   gradient norm :     0.0064995 Eh/α   predicted    -0.1651827E-03 ( -26.79%)
   displ. norm   :     0.1619497 α      lambda       -0.1855786E-03
   maximum displ.:     0.1388528 α      in ANC's #1, #2, #3, ...

........................................................................
.............................. CYCLE    6 ..............................
........................................................................

 iter      E             dE          RMSdq      gap      omega  full diag
   1    -28.4768623 -0.284769E+02  0.883E-02    3.89       0.0  T
   2    -28.4768709 -0.858016E-05  0.404E-02    3.89       1.0  T
   3    -28.4768714 -0.528022E-06  0.191E-02    3.89       1.3  T
   4    -28.4768715 -0.712894E-07  0.608E-03    3.89       4.1  T
   5    -28.4768716 -0.123054E-06  0.305E-03    3.89       8.2  T
   6    -28.4768716 -0.183496E-07  0.993E-04    3.89      25.2  T
   7    -28.4768716 -0.111558E-08  0.544E-04    3.89      46.0  T
     SCC iter.                  ...        0 min,  0.977 sec
     gradient                   ...        0 min,  0.190 sec
 * total energy  :   -28.1691468 Eh     change       -0.1506753E-03 Eh
   gradient norm :     0.0065607 Eh/α   predicted    -0.9522275E-04 ( -36.80%)
   displ. norm   :     0.1801619 α      lambda       -0.1869073E-03
   maximum displ.:     0.1530994 α      in ANC's #1, #3, #2, ...

........................................................................
.............................. CYCLE    7 ..............................
........................................................................

 iter      E             dE          RMSdq      gap      omega  full diag
   1    -28.4770143 -0.284770E+02  0.967E-02    3.89       0.0  T
   2    -28.4770240 -0.969384E-05  0.431E-02    3.89       1.0  T
   3    -28.4770245 -0.528893E-06  0.211E-02    3.89       1.2  T
   4    -28.4770245  0.766626E-07  0.744E-03    3.89       3.4  T
   5    -28.4770248 -0.346087E-06  0.337E-03    3.89       7.4  T
   6    -28.4770248 -0.239752E-07  0.105E-03    3.89      23.7  T
   7    -28.4770248 -0.424137E-08  0.569E-04    3.89      43.9  T
   8    -28.4770248 -0.738144E-09  0.174E-04    3.89     144.0  T
     SCC iter.                  ...        0 min,  1.157 sec
     gradient                   ...        0 min,  0.149 sec
 * total energy  :   -28.1693026 Eh     change       -0.1558451E-03 Eh
   gradient norm :     0.0062215 Eh/α   predicted    -0.9648656E-04 ( -38.09%)
   displ. norm   :     0.2223703 α      lambda       -0.2009689E-03
   maximum displ.:     0.1870367 α      in ANC's #1, #3, #2, ...

........................................................................
.............................. CYCLE    8 ..............................
........................................................................

 iter      E             dE          RMSdq      gap      omega  full diag
   1    -28.4771288 -0.284771E+02  0.106E-01    3.88       0.0  T
   2    -28.4771364 -0.758885E-05  0.476E-02    3.88       1.0  T
   3    -28.4771368 -0.409201E-06  0.217E-02    3.88       1.2  T
   4    -28.4771367  0.118847E-06  0.858E-03    3.88       2.9  T
   5    -28.4771373 -0.590577E-06  0.342E-03    3.88       7.3  T
   6    -28.4771373 -0.270327E-07  0.983E-04    3.88      25.4  T
   7    -28.4771373 -0.100190E-09  0.448E-04    3.88      55.8  T
     SCC iter.                  ...        0 min,  0.839 sec
     gradient                   ...        0 min,  0.165 sec
 * total energy  :   -28.1694695 Eh     change       -0.1669396E-03 Eh
   gradient norm :     0.0076656 Eh/α   predicted    -0.1054535E-03 ( -36.83%)
   displ. norm   :     0.3020466 α      lambda       -0.2506514E-03
   maximum displ.:     0.2560824 α      in ANC's #1, #3, #2, ...

........................................................................
.............................. CYCLE    9 ..............................
........................................................................

 iter      E             dE          RMSdq      gap      omega  full diag
   1    -28.4771378 -0.284771E+02  0.128E-01    3.88       0.0  T
   2    -28.4771445 -0.669231E-05  0.601E-02    3.87       1.0  T
   3    -28.4771449 -0.404713E-06  0.229E-02    3.87       1.1  T
   4    -28.4771449 -0.209762E-07  0.995E-03    3.87       2.5  T
   5    -28.4771457 -0.746090E-06  0.380E-03    3.87       6.6  T
   6    -28.4771457 -0.461480E-07  0.112E-03    3.87      22.3  T
   7    -28.4771457 -0.117197E-09  0.383E-04    3.87      65.3  T
   8    -28.4771457 -0.734783E-09  0.183E-04    3.87     137.0  T
     SCC iter.                  ...        0 min,  0.834 sec
     gradient                   ...        0 min,  0.211 sec
 * total energy  :   -28.1696692 Eh     change       -0.1996783E-03 Eh
   gradient norm :     0.0092498 Eh/α   predicted    -0.1367604E-03 ( -31.51%)
   displ. norm   :     0.3947095 α      lambda       -0.2991130E-03
   maximum displ.:     0.3362160 α      in ANC's #1, #3, #2, ...

........................................................................
.............................. CYCLE   10 ..............................
........................................................................

 iter      E             dE          RMSdq      gap      omega  full diag
   1    -28.4767345 -0.284767E+02  0.151E-01    3.87       0.0  T
   2    -28.4767407 -0.620123E-05  0.744E-02    3.87       1.0  T
   3    -28.4767413 -0.573891E-06  0.214E-02    3.87       1.2  T
   4    -28.4767414 -0.142998E-06  0.109E-02    3.87       2.3  T
   5    -28.4767423 -0.854811E-06  0.327E-03    3.87       7.7  T
   6    -28.4767423 -0.417002E-07  0.128E-03    3.87      19.5  T
   7    -28.4767423 -0.143136E-08  0.656E-04    3.87      38.1  T
   8    -28.4767423 -0.180759E-08  0.210E-04    3.87     118.8  T
     SCC iter.                  ...        0 min,  0.949 sec
     gradient                   ...        0 min,  0.236 sec
 * total energy  :   -28.1698847 Eh     change       -0.2155089E-03 Eh
   gradient norm :     0.0100150 Eh/α   predicted    -0.1728565E-03 ( -19.79%)
   displ. norm   :     0.3050725 α      lambda       -0.3231219E-03
   maximum displ.:     0.2565190 α      in ANC's #1, #3, #4, ...

........................................................................
.............................. CYCLE   11 ..............................
........................................................................

 iter      E             dE          RMSdq      gap      omega  full diag
   1    -28.4800012 -0.284800E+02  0.114E-01    3.88       0.0  T
   2    -28.4800072 -0.597515E-05  0.601E-02    3.88       1.0  T
   3    -28.4800077 -0.570323E-06  0.154E-02    3.88       1.6  T
   4    -28.4800082 -0.419750E-06  0.782E-03    3.88       3.2  T
   5    -28.4800082  0.527047E-08  0.277E-03    3.88       9.0  T
   6    -28.4800082 -0.667548E-07  0.651E-04    3.88      38.4  T
   7    -28.4800082 -0.459398E-09  0.405E-04    3.88      61.7  T
     SCC iter.                  ...        0 min,  0.904 sec
     gradient                   ...        0 min,  0.160 sec
 * total energy  :   -28.1700321 Eh     change       -0.1473504E-03 Eh
   gradient norm :     0.0108553 Eh/α   predicted    -0.1765915E-03 (  19.84%)
   displ. norm   :     0.5228294 α      lambda       -0.3912172E-03
   maximum displ.:     0.4301291 α      in ANC's #1, #3, #2, ...

........................................................................
.............................. CYCLE   12 ..............................
........................................................................

 iter      E             dE          RMSdq      gap      omega  full diag
   1    -28.4741108 -0.284741E+02  0.198E-01    3.88       0.0  T
   2    -28.4741210 -0.101907E-04  0.101E-01    3.89       1.0  T
   3    -28.4741226 -0.162867E-05  0.237E-02    3.89       1.1  T
   4    -28.4741223  0.358278E-06  0.127E-02    3.89       2.0  T
   5    -28.4741236 -0.128424E-05  0.296E-03    3.89       8.5  T
   6    -28.4741236 -0.153976E-07  0.142E-03    3.89      17.6  T
   7    -28.4741236 -0.118418E-08  0.755E-04    3.89      33.1  T
   8    -28.4741236 -0.242380E-08  0.259E-04    3.89      96.5  T
     SCC iter.                  ...        0 min,  1.270 sec
     gradient                   ...        0 min,  0.144 sec
 * total energy  :   -28.1699693 Eh     change        0.6280335E-04 Eh
   gradient norm :     0.0158270 Eh/α   predicted    -0.2490828E-03 (-496.61%)
   displ. norm   :     0.2738297 α      lambda       -0.5750734E-03
   maximum displ.:     0.2282987 α      in ANC's #1, #3, #2, ...

........................................................................
.............................. CYCLE   13 ..............................
........................................................................

 iter      E             dE          RMSdq      gap      omega  full diag
   1    -28.4796562 -0.284797E+02  0.108E-01    3.89       0.0  T
   2    -28.4796594 -0.315525E-05  0.598E-02    3.89       1.0  T
   3    -28.4796587  0.704114E-06  0.150E-02    3.89       1.7  T
   4    -28.4796602 -0.153380E-05  0.757E-03    3.89       3.3  T
   5    -28.4796604 -0.138226E-06  0.204E-03    3.89      12.3  T
   6    -28.4796604 -0.205505E-07  0.828E-04    3.89      30.2  T
   7    -28.4796604 -0.107534E-08  0.472E-04    3.89      53.0  T
     SCC iter.                  ...        0 min,  0.986 sec
     gradient                   ...        0 min,  0.118 sec
 * total energy  :   -28.1701857 Eh     change       -0.2164182E-03 Eh
   gradient norm :     0.0032424 Eh/α   predicted    -0.3090959E-03 (  42.82%)
   displ. norm   :     0.1207922 α      lambda       -0.5593665E-04
   maximum displ.:     0.1034051 α      in ANC's #1, #3, #2, ...

........................................................................
.............................. CYCLE   14 ..............................
........................................................................

 iter      E             dE          RMSdq      gap      omega  full diag
   1    -28.4787435 -0.284787E+02  0.611E-02    3.89       0.0  T
   2    -28.4787451 -0.164648E-05  0.266E-02    3.89       1.0  T
   3    -28.4787453 -0.127226E-06  0.974E-03    3.89       2.6  T
   4    -28.4787453 -0.803141E-08  0.397E-03    3.89       6.3  T
   5    -28.4787453 -0.752488E-07  0.162E-03    3.88      15.4  T
   6    -28.4787453 -0.117275E-07  0.354E-04    3.89      70.6  T
   7    -28.4787453  0.891731E-11  0.174E-04    3.89     143.9  T
     SCC iter.                  ...        0 min,  1.204 sec
     gradient                   ...        0 min,  0.176 sec
 * total energy  :   -28.1702223 Eh     change       -0.3663369E-04 Eh
   gradient norm :     0.0045710 Eh/α   predicted    -0.2837573E-04 ( -22.54%)
   displ. norm   :     0.2466177 α      lambda       -0.8230306E-04
   maximum displ.:     0.2048656 α      in ANC's #1, #3, #2, ...

........................................................................
.............................. CYCLE   15 ..............................
........................................................................

 iter      E             dE          RMSdq      gap      omega  full diag
   1    -28.4776324 -0.284776E+02  0.107E-01    3.88       0.0  T
   2    -28.4776366 -0.412866E-05  0.482E-02    3.88       1.0  T
   3    -28.4776371 -0.581413E-06  0.144E-02    3.88       1.7  T
   4    -28.4776372 -0.321649E-07  0.511E-03    3.88       4.9  T
   5    -28.4776372 -0.152315E-07  0.156E-03    3.88      16.0  T
   6    -28.4776372 -0.186358E-07  0.645E-04    3.88      38.8  T
   7    -28.4776372 -0.502403E-09  0.337E-04    3.88      74.1  T
     SCC iter.                  ...        0 min,  0.793 sec
     gradient                   ...        0 min,  0.094 sec
 * total energy  :   -28.1702721 Eh     change       -0.4978123E-04 Eh
   gradient norm :     0.0054747 Eh/α   predicted    -0.4365475E-04 ( -12.31%)
   displ. norm   :     0.1096894 α      lambda       -0.4393432E-04
   maximum displ.:     0.0885349 α      in ANC's #1, #2, #3, ...

........................................................................
.............................. CYCLE   16 ..............................
........................................................................

 iter      E             dE          RMSdq      gap      omega  full diag
   1    -28.4780776 -0.284781E+02  0.488E-02    3.88       0.0  T
   2    -28.4780786 -0.100452E-05  0.216E-02    3.88       1.2  T
   3    -28.4780787 -0.125072E-06  0.648E-03    3.89       3.9  T
   4    -28.4780787 -0.531982E-08  0.264E-03    3.89       9.5  T
   5    -28.4780787 -0.967769E-08  0.117E-03    3.89      21.4  T
   6    -28.4780787 -0.105914E-07  0.331E-04    3.89      75.5  T
   7    -28.4780787 -0.140020E-09  0.195E-04    3.89     128.0  T
     SCC iter.                  ...        0 min,  1.001 sec
     gradient                   ...        0 min,  0.080 sec
 * total energy  :   -28.1703071 Eh     change       -0.3500120E-04 Eh
   gradient norm :     0.0034644 Eh/α   predicted    -0.2223174E-04 ( -36.48%)
   displ. norm   :     0.1964244 α      lambda       -0.5542015E-04
   maximum displ.:     0.1596929 α      in ANC's #1, #2, #3, ...

........................................................................
.............................. CYCLE   17 ..............................
........................................................................

 iter      E             dE          RMSdq      gap      omega  full diag
   1    -28.4787782 -0.284788E+02  0.881E-02    3.88       0.0  T
   2    -28.4787808 -0.257735E-05  0.392E-02    3.88       1.0  T
   3    -28.4787813 -0.426808E-06  0.109E-02    3.88       2.3  T
   4    -28.4787813 -0.676503E-08  0.433E-03    3.88       5.8  T
   5    -28.4787813 -0.210850E-07  0.181E-03    3.88      13.8  T
   6    -28.4787813 -0.224198E-07  0.597E-04    3.88      41.9  T
   7    -28.4787813 -0.143348E-09  0.287E-04    3.88      87.0  T
     SCC iter.                  ...        0 min,  1.745 sec
     gradient                   ...        0 min,  0.207 sec
 * total energy  :   -28.1703458 Eh     change       -0.3871221E-04 Eh
   gradient norm :     0.0017161 Eh/α   predicted    -0.2878106E-04 ( -25.65%)
   displ. norm   :     0.3753107 α      lambda       -0.3155782E-04
   maximum displ.:     0.3073464 α      in ANC's #1, #2, #3, ...

........................................................................
.............................. CYCLE   18 ..............................
........................................................................

 iter      E             dE          RMSdq      gap      omega  full diag
   1    -28.4771539 -0.284772E+02  0.169E-01    3.88       0.0  T
   2    -28.4771621 -0.828649E-05  0.747E-02    3.88       1.0  T
   3    -28.4771635 -0.137641E-05  0.207E-02    3.88       1.2  T
   4    -28.4771635  0.710029E-07  0.908E-03    3.88       2.8  T
   5    -28.4771637 -0.282858E-06  0.359E-03    3.88       7.0  T
   6    -28.4771638 -0.825049E-07  0.118E-03    3.88      21.1  T
   7    -28.4771638 -0.136782E-08  0.368E-04    3.88      67.9  T
   8    -28.4771638 -0.280114E-09  0.184E-04    3.88     136.1  T
     SCC iter.                  ...        0 min,  0.839 sec
     gradient                   ...        0 min,  0.164 sec
 * total energy  :   -28.1703540 Eh     change       -0.8190507E-05 Eh
   gradient norm :     0.0056490 Eh/α   predicted    -0.1676865E-04 ( 104.73%)
   displ. norm   :     0.0595170 α      lambda       -0.6222832E-04
   maximum displ.:     0.0353826 α      in ANC's #1, #2, #4, ...

........................................................................
.............................. CYCLE   19 ..............................
........................................................................

 iter      E             dE          RMSdq      gap      omega  full diag
   1    -28.4793920 -0.284794E+02  0.391E-02    3.88       0.0  T
   2    -28.4793927 -0.766688E-06  0.202E-02    3.88       1.2  T
   3    -28.4793926  0.105173E-06  0.706E-03    3.88       3.5  T
   4    -28.4793929 -0.275503E-06  0.358E-03    3.88       7.0  T
   5    -28.4793930 -0.484876E-07  0.114E-03    3.88      22.0  T
   6    -28.4793930 -0.308718E-08  0.301E-04    3.88      83.0  T
   7    -28.4793930 -0.243933E-09  0.189E-04    3.88     132.6  T
     SCC iter.                  ...        0 min,  0.677 sec
     gradient                   ...        0 min,  0.170 sec
 * total energy  :   -28.1703857 Eh     change       -0.3172103E-04 Eh
   gradient norm :     0.0018714 Eh/α   predicted    -0.3122619E-04 (  -1.56%)
   displ. norm   :     0.1142107 α      lambda       -0.9096775E-05
   maximum displ.:     0.0911558 α      in ANC's #1, #2, #4, ...

........................................................................
.............................. CYCLE   20 ..............................
........................................................................

 iter      E             dE          RMSdq      gap      omega  full diag
   1    -28.4792426 -0.284792E+02  0.602E-02    3.88       0.0  T
   2    -28.4792440 -0.136523E-05  0.251E-02    3.88       1.0  T
   3    -28.4792441 -0.169338E-06  0.782E-03    3.88       3.2  T
   4    -28.4792441 -0.212761E-08  0.341E-03    3.88       7.3  T
   5    -28.4792441 -0.204162E-07  0.146E-03    3.88      17.1  T
   6    -28.4792442 -0.157352E-07  0.445E-04    3.88      56.2  T
   7    -28.4792442 -0.123269E-09  0.152E-04    3.88     163.9  T
     SCC iter.                  ...        0 min,  1.020 sec
     gradient                   ...        0 min,  0.226 sec
 * total energy  :   -28.1703960 Eh     change       -0.1028596E-04 Eh
   gradient norm :     0.0025839 Eh/α   predicted    -0.4574670E-05 ( -55.53%)
   displ. norm   :     0.2383940 α      lambda       -0.2308363E-04
   maximum displ.:     0.1873276 α      in ANC's #1, #2, #4, ...
 * RMSD in coord.:     0.8846490 α      energy gain  -0.1652319E-01 Eh

generating ANC from exact Hessian ...
Using Lindh-Hessian (1995)
 Shifting diagonal of input Hessian by    7.5285437487006800E-003
 Lowest  eigenvalues of input Hessian
    0.000000    0.000000    0.000000    0.000000    0.000000    0.000000
    0.010000    0.011154    0.015609    0.016362    0.019747    0.026713
    0.029012    0.042967    0.057163    0.062485    0.086499    0.088763
 Highest eigenvalues
    1.554286    1.751468    1.866426    2.072175    2.126124    2.597717


........................................................................
.............................. CYCLE   21 ..............................
........................................................................

 iter      E             dE          RMSdq      gap      omega  full diag
   1    -28.4786494 -0.284786E+02  0.119E-01    3.87       0.0  T
   2    -28.4786537 -0.430381E-05  0.511E-02    3.87       1.0  T
   3    -28.4786545 -0.758941E-06  0.136E-02    3.87       1.8  T
   4    -28.4786545 -0.445125E-08  0.595E-03    3.87       4.2  T
   5    -28.4786545 -0.539289E-07  0.258E-03    3.87       9.7  T
   6    -28.4786545 -0.347255E-07  0.923E-04    3.87      27.1  T
   7    -28.4786545 -0.313815E-09  0.301E-04    3.87      83.0  T
     SCC iter.                  ...        0 min,  0.802 sec
     gradient                   ...        0 min,  0.138 sec
 * total energy  :   -28.1704081 Eh     change       -0.1204271E-04 Eh
   gradient norm :     0.0022586 Eh/α   predicted     0.0000000E+00 (-100.00%)
   displ. norm   :     0.0122706 α      lambda       -0.1017898E-04
   maximum displ.:     0.0067035 α      in ANC's #1, #12, #7, ...

........................................................................
.............................. CYCLE   22 ..............................
........................................................................

 iter      E             dE          RMSdq      gap      omega  full diag
   1    -28.4790947 -0.284791E+02  0.118E-02    3.87       0.0  T
   2    -28.4790947 -0.600149E-07  0.554E-03    3.87       4.5  T
   3    -28.4790947 -0.765209E-08  0.141E-03    3.87      17.7  T
   4    -28.4790947 -0.128249E-08  0.847E-04    3.87      29.5  T
   5    -28.4790947 -0.278840E-08  0.376E-04    3.87      66.6  T
     SCC iter.                  ...        0 min,  0.709 sec
     gradient                   ...        0 min,  0.164 sec
 * total energy  :   -28.1704161 Eh     change       -0.8019572E-05 Eh
   gradient norm :     0.0011848 Eh/α   predicted    -0.5089445E-05 ( -36.54%)
   displ. norm   :     0.0448937 α      lambda       -0.1328705E-04
   maximum displ.:     0.0257207 α      in ANC's #1, #12, #7, ...

........................................................................
.............................. CYCLE   23 ..............................
........................................................................

 iter      E             dE          RMSdq      gap      omega  full diag
   1    -28.4798555 -0.284799E+02  0.363E-02    3.87       0.0  T
   2    -28.4798560 -0.577053E-06  0.163E-02    3.87       1.5  T
   3    -28.4798561 -0.191024E-07  0.477E-03    3.87       5.2  T
   4    -28.4798561 -0.817492E-07  0.288E-03    3.87       8.7  T
   5    -28.4798562 -0.346271E-07  0.122E-03    3.87      20.5  T
   6    -28.4798562 -0.325279E-08  0.409E-04    3.87      61.1  T
   7    -28.4798562 -0.166303E-09  0.220E-04    3.87     113.9  T
     SCC iter.                  ...        0 min,  0.625 sec
     gradient                   ...        0 min,  0.189 sec
 * total energy  :   -28.1704260 Eh     change       -0.9920054E-05 Eh
   gradient norm :     0.0016189 Eh/α   predicted    -0.6649890E-05 ( -32.97%)
   displ. norm   :     0.0248974 α      lambda       -0.4554893E-05
   maximum displ.:     0.0141685 α      in ANC's #1, #6, #3, ...

........................................................................
.............................. CYCLE   24 ..............................
........................................................................

 iter      E             dE          RMSdq      gap      omega  full diag
   1    -28.4796273 -0.284796E+02  0.152E-02    3.87       0.0  T
   2    -28.4796274 -0.706247E-07  0.659E-03    3.87       3.8  T
   3    -28.4796274 -0.641472E-08  0.205E-03    3.87      12.2  T
   4    -28.4796274 -0.501979E-08  0.122E-03    3.87      20.5  T
   5    -28.4796274 -0.616801E-08  0.434E-04    3.87      57.5  T
   6    -28.4796274 -0.299870E-09  0.166E-04    3.87     150.2  T
     SCC iter.                  ...        0 min,  0.731 sec
     gradient                   ...        0 min,  0.208 sec
 * total energy  :   -28.1704319 Eh     change       -0.5894505E-05 Eh
   gradient norm :     0.0011574 Eh/α   predicted    -0.2277660E-05 ( -61.36%)
   displ. norm   :     0.0945393 α      lambda       -0.1271528E-04
   maximum displ.:     0.0536619 α      in ANC's #1, #6, #3, ...

........................................................................
.............................. CYCLE   25 ..............................
........................................................................

 iter      E             dE          RMSdq      gap      omega  full diag
   1    -28.4789740 -0.284790E+02  0.577E-02    3.86       0.0  T
   2    -28.4789750 -0.100601E-05  0.247E-02    3.86       1.0  T
   3    -28.4789751 -0.146421E-06  0.754E-03    3.86       3.3  T
   4    -28.4789751  0.112208E-07  0.391E-03    3.86       6.4  T
   5    -28.4789752 -0.659476E-07  0.165E-03    3.86      15.1  T
   6    -28.4789752 -0.613884E-08  0.555E-04    3.86      45.0  T
   7    -28.4789752 -0.310791E-10  0.189E-04    3.86     132.3  T
     SCC iter.                  ...        0 min,  0.544 sec
     gradient                   ...        0 min,  0.166 sec
 * total energy  :   -28.1704423 Eh     change       -0.1042363E-04 Eh
   gradient norm :     0.0013352 Eh/α   predicted    -0.6381900E-05 ( -38.77%)
   displ. norm   :     0.0225183 α      lambda       -0.2497962E-05
   maximum displ.:     0.0153010 α      in ANC's #1, #6, #7, ...

........................................................................
.............................. CYCLE   26 ..............................
........................................................................

 iter      E             dE          RMSdq      gap      omega  full diag
   1    -28.4790453 -0.284790E+02  0.136E-02    3.86       0.0  T
   2    -28.4790453 -0.523485E-07  0.610E-03    3.86       4.1  T
   3    -28.4790453 -0.838472E-08  0.170E-03    3.86      14.7  T
   4    -28.4790453  0.882121E-09  0.840E-04    3.86      29.8  T
   5    -28.4790453 -0.378854E-08  0.315E-04    3.86      79.3  T
     SCC iter.                  ...        0 min,  0.548 sec
     gradient                   ...        0 min,  0.163 sec
 * total energy  :   -28.1704455 Eh     change       -0.3183846E-05 Eh
   gradient norm :     0.0008941 Eh/α   predicted    -0.1250127E-05 ( -60.74%)
   displ. norm   :     0.0516594 α      lambda       -0.4744614E-05
   maximum displ.:     0.0358771 α      in ANC's #1, #7, #6, ...

   *** GEOMETRY OPTIMIZATION CONVERGED AFTER 26 ITERATIONS ***

------------------------------------------------------------------------
 total energy gain   :        -0.0165727 Eh      -10.3995 kcal/mol
 total RMSD          :         0.9012300 a0        0.4769 Å
 total power (kW/mol):        -1.6735216 (step)   -1.3651 (real)
------------------------------------------------------------------------

 ANCopt (total)                0 d,  0 h,  0 min, 31.874 sec
 optimizer setup                ...        0 min,  0.000 sec (  0.001%)
 model hessian                  ...        0 min,  0.005 sec (  0.015%)
 ANC generation                 ...        0 min,  0.005 sec (  0.015%)
 coordinate transformation      ...        0 min,  0.000 sec (  0.001%)
 single point calculation       ...        0 min, 31.539 sec ( 98.951%)
 optimization log               ...        0 min,  0.002 sec (  0.007%)
 hessian update                 ...        0 min,  0.311 sec (  0.977%)
 rational function              ...        0 min,  0.008 sec (  0.026%)

================
 final structure:
================
16
 xtb: 6.7.1 (edcfbbe)
N           -0.41069425488645       -1.52355213749512       -1.12749618451751
N           -1.66154371321940       -1.47836315501401       -0.68683623921995
C           -1.91059658049096       -0.35445306412327        0.02100556037068
C           -0.74250489438591        0.37871619927867        0.04388512886065
C           -0.47905350127391        1.68226241698530        0.70953551992570
C            0.16471805637665       -0.41112528010154       -0.69677199643337
S            1.90914144031178       -0.12215723950697       -1.13627052744038
O            2.10455213414307        1.30757213557133       -0.96571428614455
N            2.61308859246182       -0.83897395881957        0.26029994401466
H           -2.30002766674051       -2.22718528945044       -0.90468749982822
H           -2.87270456177278       -0.15195009158312        0.44596596567415
H           -0.21486292860844        1.52861975842878        1.75705615020232
H            0.34845656800674        2.18663891079811        0.21779365805734
H           -1.36444979642016        2.31324876514775        0.67336243118669
H            2.53253641055096       -1.84520300658203        0.25714611580956
H            2.28394569594751       -0.44409496353448        1.13172425948250

 Bond Distances (Angstroems)
 ---------------------------
N1-N2=1.3270         N1-C6=1.3244         N2-N1=1.3270         N2-C3=1.3514         N2-H10=1.0079        C3-N2=1.3514         
C3-C4=1.3793         C3-H11=1.0711        C4-C3=1.3793         C4-C5=1.4872         C4-C6=1.4126         C5-C4=1.4872         
C5-H12=1.0912        C5-H13=1.0867        C5-H14=1.0878        C6-N1=1.3244         C6-C4=1.4126         C6-S7=1.8220         
S7-C6=1.8220         S7-O8=1.4531         S7-N9=1.7204         O8-S7=1.4531         N9-S7=1.7204         N9-H15=1.0095        
N9-H16=1.0118        H10-N2=1.0079        H11-C3=1.0711        H12-C5=1.0912        H13-C5=1.0867        H14-C5=1.0878        
H15-N9=1.0095        H16-N9=1.0118        
 C  H  Rav=1.0842 sigma=0.0077  Rmin=1.0711  Rmax=1.0912     4
 C  C  Rav=1.4264 sigma=0.0451  Rmin=1.3793  Rmax=1.4872     3
 N  H  Rav=1.0097 sigma=0.0016  Rmin=1.0079  Rmax=1.0118     3
 N  C  Rav=1.3379 sigma=0.0135  Rmin=1.3244  Rmax=1.3514     2
 N  N  Rav=1.3270 sigma=0.0000  Rmin=1.3270  Rmax=1.3270     1
 S  C  Rav=1.8220 sigma=0.0000  Rmin=1.8220  Rmax=1.8220     1
 S  N  Rav=1.7204 sigma=0.0000  Rmin=1.7204  Rmax=1.7204     1
 S  O  Rav=1.4531 sigma=0.0000  Rmin=1.4531  Rmax=1.4531     1

 selected bond angles (degree)
 --------------------
C6-N1-N2=105.84                C3-N2-N1=112.09                H10-N2-N1=120.00               H10-N2-C3=127.91               
C4-C3-N2=107.14                H11-C3-N2=122.05               H11-C3-C4=130.81               C5-C4-C3=128.56                
C6-C4-C3=103.77                C6-C4-C5=127.66                H12-C5-C4=110.44               H13-C5-C4=109.83               
H13-C5-H12=108.38              H14-C5-C4=110.45               H14-C5-H12=108.10              H14-C5-H13=109.60              
C4-C6-N1=111.17                S7-C6-N1=118.08                S7-C6-C4=130.74                O8-S7-C6=104.86                
N9-S7-C6= 97.46                N9-S7-O8=105.05                H15-N9-S7=112.34               H16-N9-S7=113.79               
H16-N9-H15=111.46              

 selected dihedral angles (degree)
 ---------------------------------
C3-N2-N1-C6=  0.12            H10-N2-N1-C6=179.38           C4-C3-N2-N1=359.89            C4-C3-N2-H10=180.70           
H11-C3-N2-N1=179.61           H11-C3-N2-H10=  0.43          C5-C4-C3-N2=181.11            C5-C4-C3-H11=  1.41           
C6-C4-C3-N2=  0.06            C6-C4-C3-H11=180.36           H12-C5-C4-C3= 84.40           H12-C5-C4-C6=265.69           
H13-C5-C4-C3=203.88           H13-C5-C4-C6= 25.17           H14-C5-C4-C3=324.88           H14-C5-C4-C6=146.17           
C4-C6-N1-N2=359.92            S7-C6-N1-N2=180.65            N1-C6-C4-C3=  0.00            N1-C6-C4-C5=178.97            
S7-C6-C4-C3=179.16            S7-C6-C4-C5=358.13            O8-S7-C6-N1=160.19            O8-S7-C6-C4=341.08            
N9-S7-C6-N1=267.99            N9-S7-C6-C4= 88.88            H15-N9-S7-C6= 72.02           H15-N9-S7-O8=179.66           
H16-N9-S7-C6=304.18           H16-N9-S7-O8= 51.83           
           -------------------------------------------------
          |                Final Singlepoint                |
           -------------------------------------------------

          ...................................................
          :                      SETUP                      :
          :.................................................:
          :  # basis functions                  49          :
          :  # atomic orbitals                  48          :
          :  # shells                           26          :
          :  # electrons                        50          :
          :  max. iterations                   250          :
          :  Hamiltonian                  GFN2-xTB          :
          :  restarted?                      false          :
          :  GBSA solvation                  false          :
          :  PC potential                    false          :
          :  electronic temp.          300.0000000     K    :
          :  accuracy                    1.0000000          :
          :  -> integral cutoff          0.2500000E+02      :
          :  -> integral neglect         0.1000000E-07      :
          :  -> SCF convergence          0.1000000E-05 Eh   :
          :  -> wf. convergence          0.1000000E-03 e    :
          :  Broyden damping             0.4000000          :
          :  net charge                          0          :
          :  unpaired electrons                  0          :
          ...................................................

 iter      E             dE          RMSdq      gap      omega  full diag
   1    -28.4790453 -0.284790E+02  0.101E-04    3.86       0.0  T
   2    -28.4790453 -0.988010E-11  0.660E-05    3.86     378.7  T
   3    -28.4790453  0.112266E-11  0.351E-05    3.86     711.8  T

   *** convergence criteria satisfied after 3 iterations ***

         #    Occupation            Energy/Eh            Energy/eV
      -------------------------------------------------------------
         1        2.0000           -0.7506665             -20.4267
       ...           ...                  ...                  ...
        19        2.0000           -0.4583847             -12.4733
        20        2.0000           -0.4291597             -11.6780
        21        2.0000           -0.4190613             -11.4032
        22        2.0000           -0.4076903             -11.0938
        23        2.0000           -0.4048780             -11.0173
        24        2.0000           -0.3987629             -10.8509
        25        2.0000           -0.3767069             -10.2507 (HOMO)
        26                         -0.2348252              -6.3899 (LUMO)
        27                         -0.1994215              -5.4265
        28                         -0.1675867              -4.5603
        29                         -0.1400407              -3.8107
        30                         -0.0525430              -1.4298
       ...                                ...                  ...
        48                          0.9776112              26.6022
      -------------------------------------------------------------
                  HL-Gap            0.1418817 Eh            3.8608 eV
             Fermi-level           -0.3057660 Eh           -8.3203 eV

 SCC (total)                   0 d,  0 h,  0 min,  0.701 sec
 SCC setup                      ...        0 min,  0.017 sec (  2.394%)
 Dispersion                     ...        0 min,  0.032 sec (  4.622%)
 classical contributions        ...        0 min,  0.013 sec (  1.908%)
 integral evaluation            ...        0 min,  0.056 sec (  8.034%)
 iterations                     ...        0 min,  0.409 sec ( 58.349%)
 molecular gradient             ...        0 min,  0.173 sec ( 24.667%)
 printout                       ...        0 min,  0.000 sec (  0.024%)

         :::::::::::::::::::::::::::::::::::::::::::::::::::::
         ::                     SUMMARY                     ::
         :::::::::::::::::::::::::::::::::::::::::::::::::::::
         :: total energy             -28.170445504609 Eh    ::
         :: gradient norm              0.000893342412 Eh/a0 ::
         :: HOMO-LUMO gap              3.860797347228 eV    ::
         ::.................................................::
         :: SCC energy               -28.478978709455 Eh    ::
         :: -> isotropic ES            0.054244763431 Eh    ::
         :: -> anisotropic ES          0.003113122085 Eh    ::
         :: -> anisotropic XC          0.017216605116 Eh    ::
         :: -> dispersion             -0.014262025823 Eh    ::
         :: repulsion energy           0.308533204846 Eh    ::
         :: add. restraining           0.000000000000 Eh    ::
         :: total charge              -0.000000000000 e     ::
         :::::::::::::::::::::::::::::::::::::::::::::::::::::

           -------------------------------------------------
          |                Property Printout                |
           -------------------------------------------------

    * Orbital Energies and Occupations

         #    Occupation            Energy/Eh            Energy/eV
      -------------------------------------------------------------
         1        2.0000           -0.7506665             -20.4267
       ...           ...                  ...                  ...
        13        2.0000           -0.5273875             -14.3509
        14        2.0000           -0.5095295             -13.8650
        15        2.0000           -0.4940883             -13.4448
        16        2.0000           -0.4862415             -13.2313
        17        2.0000           -0.4783431             -13.0164
        18        2.0000           -0.4670638             -12.7095
        19        2.0000           -0.4583847             -12.4733
        20        2.0000           -0.4291597             -11.6780
        21        2.0000           -0.4190613             -11.4032
        22        2.0000           -0.4076903             -11.0938
        23        2.0000           -0.4048780             -11.0173
        24        2.0000           -0.3987629             -10.8509
        25        2.0000           -0.3767069             -10.2507 (HOMO)
        26                         -0.2348252              -6.3899 (LUMO)
        27                         -0.1994215              -5.4265
        28                         -0.1675867              -4.5603
        29                         -0.1400407              -3.8107
        30                         -0.0525430              -1.4298
        31                          0.0132852               0.3615
        32                          0.0437313               1.1900
        33                          0.0771276               2.0987
        34                          0.1013026               2.7566
        35                          0.1283020               3.4913
        36                          0.1360287               3.7015
       ...                                ...                  ...
        48                          0.9776112              26.6022
      -------------------------------------------------------------
                  HL-Gap            0.1418817 Eh            3.8608 eV
             Fermi-level           -0.3057660 Eh           -8.3203 eV

     #   Z          covCN         q      C6AA      α(0)
     1   7 N        2.021    -0.237    26.969     7.703
     2   7 N        2.992     0.009    21.096     6.822
     3   6 C        3.024    -0.018    28.443     8.748
     4   6 C        3.061    -0.011    28.229     8.713
     5   6 C        3.753    -0.110    22.663     6.788
     6   6 C        3.168     0.000    27.662     8.593
     7  16 S        2.775     0.533   121.196    18.529
     8   8 O        0.860    -0.490    23.558     6.508
     9   7 N        2.632    -0.382    29.878     8.118
    10   1 H        0.860     0.167     1.289     1.778
    11   1 H        0.926     0.040     2.448     2.446
    12   1 H        0.924     0.041     2.435     2.440
    13   1 H        0.925     0.079     1.991     2.206
    14   1 H        0.925     0.040     2.455     2.450
    15   1 H        0.861     0.165     1.306     1.790
    16   1 H        0.861     0.174     1.246     1.749

 Mol. C6AA /au·bohr⁶  :       3734.958661
 Mol. C8AA /au·bohr⁸  :      98470.111942
 Mol. α(0) /au        :         95.381531


Wiberg/Mayer (AO) data.
largest (>0.10) Wiberg bond orders for each atom

 ---------------------------------------------------------------------------
     #   Z sym  total        # sym  WBO       # sym  WBO       # sym  WBO
 ---------------------------------------------------------------------------
     1   7 N    2.967 --     6 C    1.479     2 N    1.220     3 C    0.169
     2   7 N    3.628 --     3 C    1.268     1 N    1.220    10 H    0.941
     3   6 C    3.953 --     4 C    1.490     2 N    1.268    11 H    0.968
                             1 N    0.169
     4   6 C    3.982 --     3 C    1.490     6 C    1.313     5 C    1.033
     5   6 C    3.993 --     4 C    1.033    14 H    0.980    13 H    0.973
                            12 H    0.968
     6   6 C    3.956 --     1 N    1.479     4 C    1.313     7 S    0.920
     7  16 S    3.926 --     8 O    1.845     9 N    1.079     6 C    0.920
     8   8 O    2.023 --     7 S    1.845
     9   7 N    3.117 --     7 S    1.079    15 H    0.956    16 H    0.949
    10   1 H    0.971 --     2 N    0.941
    11   1 H    0.998 --     3 C    0.968
    12   1 H    0.998 --     5 C    0.968
    13   1 H    0.994 --     5 C    0.973
    14   1 H    0.998 --     5 C    0.980
    15   1 H    0.973 --     9 N    0.956
    16   1 H    0.970 --     9 N    0.949
 ---------------------------------------------------------------------------

Topologies differ in total number of bonds
Writing topology from bond orders to xtbtopo.mol

molecular dipole:
                 x           y           z       tot (Debye)
 q only:       -1.044      -1.235       0.324
   full:       -1.719      -1.265       0.879       5.867
molecular quadrupole (traceless):
                xx          xy          yy          xz          yz          zz
 q only:        0.158      -4.449      -0.654       1.752       3.348       0.496
  q+dip:        0.331      -3.366      -0.016       4.062       2.649      -0.315
   full:       -0.103      -3.586      -0.160       4.658       1.748       0.263

           -------------------------------------------------
          |                Geometry Summary                 |
           -------------------------------------------------

      molecular mass/u    :      145.1828308
   center of mass at/Å    :        0.4492441      -0.1368287      -0.4760380
  moments of inertia/u·Å² :        0.2108471E+03   0.4364913E+03   0.5553276E+03
rotational constants/cm⁻¹ :        0.7995193E-01   0.3862077E-01   0.3035619E-01

 * 15 selected distances

     #   Z          #   Z                                           value/Å
     1   7 N        2   7 N                                       1.3269695
     2   7 N        3   6 C                                       1.3513851
     3   6 C        4   6 C                                       1.3793111
     4   6 C        5   6 C                                       1.4871887
     1   7 N        6   6 C                                       1.3244306
     4   6 C        6   6 C                                       1.4126133
     7  16 S        8   8 O                                       1.4530662
     7  16 S        9   7 N                                       1.7204004 (max)
     2   7 N       10   1 H                                       1.0078967 (min)
     3   6 C       11   1 H                                       1.0710979
     5   6 C       12   1 H                                       1.0911931
     5   6 C       13   1 H                                       1.0867285
     5   6 C       14   1 H                                       1.0878323
     9   7 N       15   1 H                                       1.0094532
     9   7 N       16   1 H                                       1.0117534

 * 7 distinct bonds (by element types)

   Z      Z             #   av. dist./Å        max./Å        min./Å
   1 H    6 C           4     1.0842130     1.0911931     1.0710979
   6 C    6 C           3     1.4263710     1.4871887     1.3793111
   1 H    7 N           3     1.0097011     1.0117534     1.0078967
   6 C    7 N           2     1.3379078     1.3513851     1.3244306
   7 N    7 N           1     1.3269695     1.3269695     1.3269695
   7 N   16 S           1     1.7204004     1.7204004     1.7204004
   8 O   16 S           1     1.4530662     1.4530662     1.4530662


optimized geometry written to: xtbopt.xyz


           -------------------------------------------------
          | TOTAL ENERGY              -28.170445504609 Eh   |
          | GRADIENT NORM               0.000893342412 Eh/α |
          | HOMO-LUMO GAP               3.860797347228 eV   |
           -------------------------------------------------

------------------------------------------------------------------------
 * finished run on 2026/08/20 at 09:38:50.718     
------------------------------------------------------------------------
 total:
 * wall-time:     0 d,  0 h,  0 min, 34.357 sec
 *  cpu-time:     0 d,  0 h,  2 min, 18.593 sec
 * ratio c/w:     4.034 speedup
 SCF:
 * wall-time:     0 d,  0 h,  0 min,  1.607 sec
 *  cpu-time:     0 d,  0 h,  0 min,  7.663 sec
 * ratio c/w:     4.768 speedup
 ANC optimizer:
 * wall-time:     0 d,  0 h,  0 min, 32.585 sec
 *  cpu-time:     0 d,  0 h,  2 min, 10.474 sec
 * ratio c/w:     4.004 speedup

