19

C      2.650360   -0.674910   -0.007551
N      1.220517   -0.958670   -0.015649
N      0.712306   -2.171786   -0.171718
C     -0.630514   -2.067341   -0.101614
C     -0.977212   -0.743936    0.100348
C     -2.353564   -0.201018    0.312355
C      0.225778   -0.067948    0.163484
S      0.464040    1.674821    0.452790
O     -0.384087    1.967917    1.682854
N     -0.395731    2.449741   -0.859545
H      2.954218   -0.314316    0.997562
H      2.883614    0.102761   -0.765039
H      3.225738   -1.593532   -0.249915
H     -1.311404   -2.904376   -0.180777
H     -3.113071   -0.939502   -0.020284
H     -2.488955    0.732449   -0.271348
H     -2.505842    0.013427    1.390430
H      0.119955    2.216356   -1.737358
H     -0.296147    3.479863   -0.719026
