16

N     -0.606395   -1.568670   -1.325711
N     -1.848749   -1.410644   -0.897009
C     -1.921293   -0.334760   -0.093185
C     -0.667994    0.234464   -0.013798
C     -0.276536    1.402521    0.832903
C      0.137195   -0.579747   -0.794567
S      1.886420   -0.420157   -1.088284
O      2.072200    1.022562   -1.539106
N      2.638445   -0.494538    0.493599
H     -2.640406   -2.043271   -1.147033
H     -2.820471    0.002709    0.405699
H      0.134271    1.039903    1.797697
H      0.484037    2.020031    0.313726
H     -1.163524    2.038519    1.036860
H      2.198075   -1.288924    1.009564
H      2.394726    0.380002    1.008643
