16
 energy: -28.174589581289 gnorm: 0.000840668435 xtb: 6.7.1 (edcfbbe)
N            0.17318536426447        1.87040489211374        0.10397006959015
N           -0.84427367467969        2.24979250145757       -0.64871749503549
C           -1.56046643113918        1.15899416299189       -0.86118250531103
C           -0.99370767815897        0.03967421950406       -0.22829721674463
C           -1.47105370654731       -1.36784019720045       -0.21423823830463
C            0.13981385580327        0.54912307484258        0.38079916933746
S            1.41603578506762       -0.17920962447632        1.41300704942630
O            2.33308947993598        0.94541572029823        1.60428396002854
N            2.01596866050596       -1.18816302336158        0.14389096850123
H            0.88743751774736        2.51391592648372        0.41295173194477
H           -2.45193143719415        1.20300317108603       -1.45428976581456
H           -1.83203416313980       -1.63872772763406        0.77787792673233
H           -2.28246947920550       -1.49645432727692       -0.92563374972057
H           -0.65646894114710       -2.04171781653366       -0.47320580231962
H            2.57265590546647       -1.94928986617664        0.50710408934065
H            2.55421794242090       -0.66892108611903       -0.53832119165100
