      -----------------------------------------------------------      
     |                   =====================                   |     
     |                           x T B                           |     
     |                   =====================                   |     
     |                         S. Grimme                         |     
     |          Mulliken Center for Theoretical Chemistry        |     
     |                    University of Bonn                     |     
      -----------------------------------------------------------      

   * xtb version 6.7.1 (edcfbbe) compiled by 'conda@3ef47c1a292c' on 2024-11-25

   xtb is free software: you can redistribute it and/or modify it under
   the terms of the GNU Lesser General Public License as published by
   the Free Software Foundation, either version 3 of the License, or
   (at your option) any later version.
   
   xtb is distributed in the hope that it will be useful,
   but WITHOUT ANY WARRANTY; without even the implied warranty of
   MERCHANTABILITY or FITNESS FOR A PARTICULAR PURPOSE.  See the
   GNU Lesser General Public License for more details.
   
   Cite this work as:
   * C. Bannwarth, E. Caldeweyher, S. Ehlert, A. Hansen, P. Pracht,
     J. Seibert, S. Spicher, S. Grimme, WIREs Comput. Mol. Sci., 2020, 11,
     e01493. DOI: 10.1002/wcms.1493
   
   for GFN2-xTB:
   * C. Bannwarth, S. Ehlert and S. Grimme., J. Chem. Theory Comput., 2019,
     15, 1652-1671. DOI: 10.1021/acs.jctc.8b01176
   for GFN1-xTB:
   * S. Grimme, C. Bannwarth, P. Shushkov, J. Chem. Theory Comput., 2017,
     13, 1989-2009. DOI: 10.1021/acs.jctc.7b00118
   for GFN0-xTB:
   * P. Pracht, E. Caldeweyher, S. Ehlert, S. Grimme, ChemRxiv, 2019, preprint.
     DOI: 10.26434/chemrxiv.8326202.v1
   for GFN-FF:
   * S. Spicher and S. Grimme, Angew. Chem. Int. Ed., 2020, 59, 15665-15673.
     DOI: 10.1002/anie.202004239
   
   for ALPB and GBSA implicit solvation:
   * S. Ehlert, M. Stahn, S. Spicher, S. Grimme, J. Chem. Theory Comput.,
     2021, 17, 4250-4261. DOI: 10.1021/acs.jctc.1c00471
   
   for ddCOSMO and CPCM-X implicit solvation:
   * M. Stahn, S. Ehlert, S. Grimme, J. Phys. Chem. A,
     2023, XX, XXXX-XXXX. DOI: 10.1021/acs.jpca.3c04382
   
   for DFT-D4:
   * E. Caldeweyher, C. Bannwarth and S. Grimme, J. Chem. Phys., 2017,
     147, 034112. DOI: 10.1063/1.4993215
   * E. Caldeweyher, S. Ehlert, A. Hansen, H. Neugebauer, S. Spicher,
     C. Bannwarth and S. Grimme, J. Chem. Phys., 2019, 150, 154122.
     DOI: 10.1063/1.5090222
   * E. Caldeweyher, J.-M. Mewes, S. Ehlert and S. Grimme, Phys. Chem. Chem. Phys.
     2020, 22, 8499-8512. DOI: 10.1039/D0CP00502A
   
   for sTDA-xTB:
   * S. Grimme and C. Bannwarth, J. Chem. Phys., 2016, 145, 054103.
     DOI: 10.1063/1.4959605
   
   in the mass-spec context:
   * V. Asgeirsson, C. Bauer and S. Grimme, Chem. Sci., 2017, 8, 4879.
     DOI: 10.1039/c7sc00601b
   * J. Koopman and S. Grimme, ACS Omega 2019, 4, 12, 15120-15133.
     DOI: 10.1021/acsomega.9b02011
   
   for metadynamics refer to:
   * S. Grimme, J. Chem. Theory Comput., 2019, 155, 2847-2862
     DOI: 10.1021/acs.jctc.9b00143
   
   for SPH calculations refer to:
   * S. Spicher and S. Grimme, J. Chem. Theory Comput., 2021, 17, 1701-1714
     DOI: 10.1021/acs.jctc.0c01306
   
   for ONIOM refer to:
   * C. Plett, A. Katbashev, S. Ehlert, S. Grimme, M. Bursch,
     Phys. Chem. Chem. Phys., 2023, 25, 17860-17868. DOI: 10.1039/D3CP02178E
   
   for DIPRO refer to:
   * J. Kohn, N. Gildemeister, S. Grimme, D. Fazzi, A. Hansen,
     J. Chem. Phys., 2023, just accepted.
   
   for PTB refer to:
   * S. Grimme, M. Mueller, A. Hansen, J. Chem. Phys., 2023, 158, 124111.
     DOI: 10.1063/5.0137838
   
   with help from (in alphabetical order)
   P. Atkinson, C. Bannwarth, F. Bohle, G. Brandenburg, E. Caldeweyher
   M. Checinski, S. Dohm, S. Ehlert, S. Ehrlich, I. Gerasimov, C. Hölzer
   A. Katbashev, J. Kohn, J. Koopman, C. Lavigne, S. Lehtola, F. März, M. Müller,
   F. Musil, H. Neugebauer, J. Pisarek, C. Plett, P. Pracht, F. Pultar,
   J. Seibert, P. Shushkov, S. Spicher, M. Stahn, M. Steiner, T. Strunk,
   J. Stückrath, T. Rose, and J. Unsleber
   
 * started run on 2026/08/20 at 09:38:16.359     
   ID    Z sym.   atoms
    1    7 N      1, 2, 9
    2    6 C      3-6
    3   16 S      7
    4    8 O      8
    5    1 H      10-16

           -------------------------------------------------
          |                Calculation Setup                |
           -------------------------------------------------

          program call               : /h/399/yunhengzou/micromamba/envs/el-agente/bin/xtb pathway_A_substrate_raw.xyz --opt --gfn 2 -P 4 --chrg 0 --uhf 0
          coordinate file            : pathway_A_substrate_raw.xyz
          omp threads                :                     4


           -------------------------------------------------
          |                 G F N 2 - x T B                 |
           -------------------------------------------------

        Reference                      10.1021/acs.jctc.8b01176
      * Hamiltonian:
        H0-scaling (s, p, d)           1.850000    2.230000    2.230000
        zeta-weighting                 0.500000
      * Dispersion:
        s8                             2.700000
        a1                             0.520000
        a2                             5.000000
        s9                             5.000000
      * Repulsion:
        kExp                           1.500000    1.000000
        rExp                           1.000000
      * Coulomb:
        alpha                          2.000000
        third order                    shell-resolved
        anisotropic                    true
        a3                             3.000000
        a5                             4.000000
        cn-shift                       1.200000
        cn-exp                         4.000000
        max-rad                        5.000000


          ...................................................
          :                      SETUP                      :
          :.................................................:
          :  # basis functions                  49          :
          :  # atomic orbitals                  48          :
          :  # shells                           26          :
          :  # electrons                        50          :
          :  max. iterations                   250          :
          :  Hamiltonian                  GFN2-xTB          :
          :  restarted?                      false          :
          :  GBSA solvation                  false          :
          :  PC potential                    false          :
          :  electronic temp.          300.0000000     K    :
          :  accuracy                    1.0000000          :
          :  -> integral cutoff          0.2500000E+02      :
          :  -> integral neglect         0.1000000E-07      :
          :  -> SCF convergence          0.1000000E-05 Eh   :
          :  -> wf. convergence          0.1000000E-03 e    :
          :  Broyden damping             0.4000000          :
          :  net charge                          0          :
          :  unpaired electrons                  0          :
          ...................................................

 iter      E             dE          RMSdq      gap      omega  full diag
   1    -28.3315916 -0.283316E+02  0.476E+00    4.28       0.0  T
   2    -28.4216680 -0.900764E-01  0.312E+00    3.90       1.0  T
   3    -28.4326233 -0.109553E-01  0.159E+00    3.80       1.0  T
   4    -28.4334521 -0.828850E-03  0.615E-01    3.74       1.0  T
   5    -28.4354449 -0.199281E-02  0.242E-01    3.74       1.0  T
   6    -28.4354655 -0.205742E-04  0.680E-02    3.75       1.0  T
   7    -28.4354714 -0.590011E-05  0.440E-02    3.75       1.0  T
   8    -28.4354783 -0.690468E-05  0.239E-02    3.75       1.0  T
   9    -28.4354789 -0.582774E-06  0.628E-03    3.75       4.0  T
  10    -28.4354792 -0.320023E-06  0.335E-03    3.75       7.5  T
  11    -28.4354792 -0.201183E-07  0.152E-03    3.75      16.5  T
  12    -28.4354792 -0.863545E-08  0.380E-04    3.75      65.9  T
  13    -28.4354792 -0.881073E-10  0.129E-04    3.75     194.3  T

   *** convergence criteria satisfied after 13 iterations ***

         #    Occupation            Energy/Eh            Energy/eV
      -------------------------------------------------------------
         1        2.0000           -0.7658646             -20.8402
       ...           ...                  ...                  ...
        19        2.0000           -0.4702992             -12.7975
        20        2.0000           -0.4419064             -12.0249
        21        2.0000           -0.4234450             -11.5225
        22        2.0000           -0.4150725             -11.2947
        23        2.0000           -0.4066534             -11.0656
        24        2.0000           -0.4049502             -11.0193
        25        2.0000           -0.3908741             -10.6362 (HOMO)
        26                         -0.2529586              -6.8834 (LUMO)
        27                         -0.2024635              -5.5093
        28                         -0.1860388              -5.0624
        29                         -0.1527878              -4.1576
        30                         -0.1087735              -2.9599
       ...                                ...                  ...
        48                          0.7601776              20.6855
      -------------------------------------------------------------
                  HL-Gap            0.1379155 Eh            3.7529 eV
             Fermi-level           -0.3219164 Eh           -8.7598 eV

 SCC (total)                   0 d,  0 h,  0 min,  1.511 sec
 SCC setup                      ...        0 min,  0.000 sec (  0.017%)
 Dispersion                     ...        0 min,  0.000 sec (  0.006%)
 classical contributions        ...        0 min,  0.001 sec (  0.086%)
 integral evaluation            ...        0 min,  0.001 sec (  0.051%)
 iterations                     ...        0 min,  1.303 sec ( 86.267%)
 molecular gradient             ...        0 min,  0.205 sec ( 13.562%)
 printout                       ...        0 min,  0.000 sec (  0.010%)

         :::::::::::::::::::::::::::::::::::::::::::::::::::::
         ::                     SUMMARY                     ::
         :::::::::::::::::::::::::::::::::::::::::::::::::::::
         :: total energy             -28.155097208823 Eh    ::
         :: gradient norm              0.102413104877 Eh/a0 ::
         :: HOMO-LUMO gap              3.752871410304 eV    ::
         ::.................................................::
         :: SCC energy               -28.435424986947 Eh    ::
         :: -> isotropic ES            0.062515376081 Eh    ::
         :: -> anisotropic ES          0.003390902199 Eh    ::
         :: -> anisotropic XC          0.020197240399 Eh    ::
         :: -> dispersion             -0.013839733533 Eh    ::
         :: repulsion energy           0.280327778124 Eh    ::
         :: add. restraining           0.000000000000 Eh    ::
         :: total charge              -0.000000000000 e     ::
         :::::::::::::::::::::::::::::::::::::::::::::::::::::

      ----------------------------------------------------------- 
     |                   =====================                   |
     |                        A N C O P T                        |
     |                   =====================                   |
     |               Approximate Normal Coordinate               |
     |                Rational Function Optimizer                |
      ----------------------------------------------------------- 
      ----------------------------------------------------------- 
     |                   =====================                   |
     |                        A N C O P T                        |
     |                   =====================                   |
     |               Approximate Normal Coordinate               |
     |                Rational Function Optimizer                |
      ----------------------------------------------------------- 

          ...................................................
          :                      SETUP                      :
          :.................................................:
          :   optimization level            normal          :
          :   max. optcycles                   200          :
          :   ANC micro-cycles                  20          :
          :   degrees of freedom                42          :
          :.................................................:
          :   RF solver                   davidson          :
          :   write xtbopt.log                true          :
          :   linear?                        false          :
          :   energy convergence         0.5000000E-05 Eh   :
          :   grad. convergence          0.1000000E-02 Eh/α :
          :   maxmium RF displ.          1.0000000          :
          :   Hlow (freq-cutoff)         0.1000000E-01      :
          :   Hmax (freq-cutoff)         5.0000000          :
          :   S6 in model hess.         20.0000000          :
          ...................................................

generating ANC from exact Hessian ...
Using Lindh-Hessian (1995)
 Shifting diagonal of input Hessian by    6.6001422341142191E-003
 Lowest  eigenvalues of input Hessian
    0.000000    0.000000    0.000000    0.000000    0.000000    0.000000
    0.010000    0.010954    0.013931    0.015750    0.017296    0.022343
    0.033304    0.038625    0.051292    0.058775    0.059882    0.061743
 Highest eigenvalues
    1.550315    1.825231    1.867740    2.003825    2.093254    2.147108


........................................................................
.............................. CYCLE    1 ..............................
........................................................................

 iter      E             dE          RMSdq      gap      omega  full diag
   1    -28.4354792 -0.284355E+02  0.368E-05    3.75       0.0  T
   2    -28.4354792 -0.102318E-11  0.230E-05    3.75    1088.1  T
   3    -28.4354792  0.472511E-12  0.135E-05    3.75    1848.0  T
     SCC iter.                  ...        0 min,  0.273 sec
     gradient                   ...        0 min,  0.233 sec
 * total energy  :   -28.1550972 Eh     change       -0.9303847E-10 Eh
   gradient norm :     0.1024145 Eh/α   predicted     0.0000000E+00 (-100.00%)
   displ. norm   :     0.2916677 α      lambda       -0.1604135E-01
   maximum displ.:     0.1040136 α      in ANC's #7, #3, #23, ...

........................................................................
.............................. CYCLE    2 ..............................
........................................................................

 iter      E             dE          RMSdq      gap      omega  full diag
   1    -28.4616339 -0.284616E+02  0.452E-01    3.89       0.0  T
   2    -28.4619719 -0.338011E-03  0.272E-01    3.97       1.0  T
   3    -28.4619897 -0.177154E-04  0.121E-01    3.97       1.0  T
   4    -28.4620296 -0.399462E-04  0.498E-02    3.98       1.0  T
   5    -28.4620483 -0.186895E-04  0.174E-02    3.98       1.4  T
   6    -28.4620486 -0.317664E-06  0.733E-03    3.98       3.4  T
   7    -28.4620490 -0.384037E-06  0.276E-03    3.98       9.0  T
   8    -28.4620490 -0.121611E-07  0.102E-03    3.98      24.5  T
   9    -28.4620490 -0.749395E-09  0.249E-04    3.98     100.4  T
  10    -28.4620490 -0.491127E-10  0.117E-04    3.98     212.9  T
     SCC iter.                  ...        0 min,  1.075 sec
     gradient                   ...        0 min,  0.169 sec
 * total energy  :   -28.1659172 Eh     change       -0.1082000E-01 Eh
   gradient norm :     0.0538758 Eh/α   predicted    -0.8702995E-02 ( -19.57%)
   displ. norm   :     0.2359486 α      lambda       -0.4797673E-02
   maximum displ.:     0.0971595 α      in ANC's #2, #5, #7, ...

........................................................................
.............................. CYCLE    3 ..............................
........................................................................

 iter      E             dE          RMSdq      gap      omega  full diag
   1    -28.4761431 -0.284761E+02  0.274E-01    4.04       0.0  T
   2    -28.4764654 -0.322360E-03  0.177E-01    4.11       1.0  T
   3    -28.4765110 -0.455499E-04  0.934E-02    4.11       1.0  T
   4    -28.4764969  0.141017E-04  0.467E-02    4.12       1.0  T
   5    -28.4765171 -0.202270E-04  0.105E-02    4.11       2.4  T
   6    -28.4765172 -0.813652E-07  0.513E-03    4.11       4.9  T
   7    -28.4765173 -0.167522E-06  0.164E-03    4.11      15.2  T
   8    -28.4765174 -0.546460E-08  0.828E-04    4.11      30.2  T
   9    -28.4765174 -0.573635E-09  0.193E-04    4.11     129.8  T
     SCC iter.                  ...        0 min,  1.981 sec
     gradient                   ...        0 min,  0.203 sec
 * total energy  :   -28.1688380 Eh     change       -0.2920784E-02 Eh
   gradient norm :     0.0211190 Eh/α   predicted    -0.2532385E-02 ( -13.30%)
   displ. norm   :     0.2087129 α      lambda       -0.1144804E-02
   maximum displ.:     0.1200634 α      in ANC's #2, #6, #7, ...

........................................................................
.............................. CYCLE    4 ..............................
........................................................................

 iter      E             dE          RMSdq      gap      omega  full diag
   1    -28.4773635 -0.284774E+02  0.112E-01    4.12       0.0  T
   2    -28.4774111 -0.476081E-04  0.749E-02    4.15       1.0  T
   3    -28.4774133 -0.226439E-05  0.408E-02    4.15       1.0  T
   4    -28.4774135 -0.108978E-06  0.905E-03    4.15       2.8  T
   5    -28.4774137 -0.282654E-06  0.552E-03    4.15       4.5  T
   6    -28.4774139 -0.125965E-06  0.183E-03    4.15      13.7  T
   7    -28.4774139 -0.986500E-08  0.103E-03    4.15      24.2  T
   8    -28.4774139 -0.317197E-08  0.521E-04    4.15      47.9  T
   9    -28.4774139 -0.483773E-09  0.816E-05    4.15     306.5  T
     SCC iter.                  ...        0 min,  1.087 sec
     gradient                   ...        0 min,  0.144 sec
 * total energy  :   -28.1696573 Eh     change       -0.8193378E-03 Eh
   gradient norm :     0.0141879 Eh/α   predicted    -0.5973361E-03 ( -27.10%)
   displ. norm   :     0.2650252 α      lambda       -0.8638656E-03
   maximum displ.:     0.1600180 α      in ANC's #2, #1, #6, ...

........................................................................
.............................. CYCLE    5 ..............................
........................................................................

 iter      E             dE          RMSdq      gap      omega  full diag
   1    -28.4772339 -0.284772E+02  0.131E-01    4.15       0.0  T
   2    -28.4772454 -0.115306E-04  0.722E-02    4.16       1.0  T
   3    -28.4772423  0.307073E-05  0.287E-02    4.16       1.0  T
   4    -28.4772481 -0.574429E-05  0.134E-02    4.16       1.9  T
   5    -28.4772486 -0.494481E-06  0.676E-03    4.16       3.7  T
   6    -28.4772486 -0.568761E-07  0.234E-03    4.16      10.7  T
   7    -28.4772486 -0.167874E-07  0.137E-03    4.16      18.3  T
   8    -28.4772487 -0.366427E-08  0.341E-04    4.16      73.4  T
   9    -28.4772487 -0.326253E-09  0.111E-04    4.16     224.3  T
     SCC iter.                  ...        0 min,  1.541 sec
     gradient                   ...        0 min,  0.186 sec
 * total energy  :   -28.1702834 Eh     change       -0.6260360E-03 Eh
   gradient norm :     0.0126956 Eh/α   predicted    -0.4622735E-03 ( -26.16%)
   displ. norm   :     0.3222607 α      lambda       -0.7238308E-03
   maximum displ.:     0.1829527 α      in ANC's #2, #1, #7, ...

........................................................................
.............................. CYCLE    6 ..............................
........................................................................

 iter      E             dE          RMSdq      gap      omega  full diag
   1    -28.4769621 -0.284770E+02  0.183E-01    4.16       0.0  T
   2    -28.4769858 -0.237357E-04  0.913E-02    4.15       1.0  T
   3    -28.4769840  0.182142E-05  0.420E-02    4.15       1.0  T
   4    -28.4769907 -0.667234E-05  0.208E-02    4.15       1.2  T
   5    -28.4769931 -0.239675E-05  0.882E-03    4.15       2.8  T
   6    -28.4769932 -0.101908E-06  0.305E-03    4.15       8.2  T
   7    -28.4769932 -0.513301E-07  0.158E-03    4.15      15.8  T
   8    -28.4769932 -0.256403E-08  0.378E-04    4.15      66.1  T
   9    -28.4769932 -0.130065E-09  0.149E-04    4.15     167.7  T
     SCC iter.                  ...        0 min,  1.313 sec
     gradient                   ...        0 min,  0.220 sec
 * total energy  :   -28.1708394 Eh     change       -0.5560012E-03 Eh
   gradient norm :     0.0096499 Eh/α   predicted    -0.3994947E-03 ( -28.15%)
   displ. norm   :     0.3897716 α      lambda       -0.7046146E-03
   maximum displ.:     0.2222596 α      in ANC's #1, #2, #7, ...

........................................................................
.............................. CYCLE    7 ..............................
........................................................................

 iter      E             dE          RMSdq      gap      omega  full diag
   1    -28.4770205 -0.284770E+02  0.239E-01    4.14       0.0  T
   2    -28.4770725 -0.519974E-04  0.117E-01    4.13       1.0  T
   3    -28.4770748 -0.232292E-05  0.506E-02    4.13       1.0  T
   4    -28.4770761 -0.135349E-05  0.239E-02    4.13       1.0  T
   5    -28.4770791 -0.298195E-05  0.110E-02    4.13       2.3  T
   6    -28.4770794 -0.256960E-06  0.335E-03    4.13       7.5  T
   7    -28.4770794 -0.603313E-07  0.183E-03    4.13      13.7  T
   8    -28.4770795 -0.576870E-08  0.547E-04    4.13      45.7  T
   9    -28.4770795 -0.356589E-09  0.185E-04    4.13     134.9  T
     SCC iter.                  ...        0 min,  1.133 sec
     gradient                   ...        0 min,  0.207 sec
 * total energy  :   -28.1713423 Eh     change       -0.5029677E-03 Eh
   gradient norm :     0.0121401 Eh/α   predicted    -0.4058343E-03 ( -19.31%)
   displ. norm   :     0.3060532 α      lambda       -0.5688772E-03
   maximum displ.:     0.1835884 α      in ANC's #1, #2, #7, ...

........................................................................
.............................. CYCLE    8 ..............................
........................................................................

 iter      E             dE          RMSdq      gap      omega  full diag
   1    -28.4798466 -0.284798E+02  0.195E-01    4.13       0.0  T
   2    -28.4798765 -0.299463E-04  0.979E-02    4.13       1.0  T
   3    -28.4798782 -0.171446E-05  0.371E-02    4.13       1.0  T
   4    -28.4798786 -0.347758E-06  0.162E-02    4.13       1.5  T
   5    -28.4798792 -0.649542E-06  0.916E-03    4.13       2.7  T
   6    -28.4798797 -0.407353E-06  0.194E-03    4.13      12.9  T
   7    -28.4798797 -0.176041E-09  0.111E-03    4.13      22.5  T
   8    -28.4798797 -0.603314E-08  0.366E-04    4.13      68.4  T
   9    -28.4798797 -0.248416E-09  0.152E-04    4.13     164.0  T
     SCC iter.                  ...        0 min,  1.705 sec
     gradient                   ...        0 min,  0.151 sec
 * total energy  :   -28.1717428 Eh     change       -0.4004994E-03 Eh
   gradient norm :     0.0140095 Eh/α   predicted    -0.3110800E-03 ( -22.33%)
   displ. norm   :     0.4085827 α      lambda       -0.5800325E-03
   maximum displ.:     0.2456633 α      in ANC's #1, #2, #6, ...

........................................................................
.............................. CYCLE    9 ..............................
........................................................................

 iter      E             dE          RMSdq      gap      omega  full diag
   1    -28.4776900 -0.284777E+02  0.242E-01    4.11       0.0  T
   2    -28.4777151 -0.251016E-04  0.119E-01    4.11       1.0  T
   3    -28.4777131  0.204630E-05  0.424E-02    4.11       1.0  T
   4    -28.4777179 -0.476078E-05  0.212E-02    4.11       1.2  T
   5    -28.4777203 -0.248198E-05  0.969E-03    4.11       2.6  T
   6    -28.4777206 -0.234897E-06  0.281E-03    4.11       8.9  T
   7    -28.4777206 -0.831668E-08  0.168E-03    4.11      14.9  T
   8    -28.4777206 -0.101465E-07  0.359E-04    4.11      69.6  T
   9    -28.4777206 -0.992344E-10  0.134E-04    4.11     187.0  T
     SCC iter.                  ...        0 min,  1.298 sec
     gradient                   ...        0 min,  0.208 sec
 * total energy  :   -28.1719907 Eh     change       -0.2478362E-03 Eh
   gradient norm :     0.0179980 Eh/α   predicted    -0.3384250E-03 (  36.55%)
   displ. norm   :     0.1838937 α      lambda       -0.7298273E-03
   maximum displ.:     0.1240140 α      in ANC's #1, #2, #13, ...

........................................................................
.............................. CYCLE   10 ..............................
........................................................................

 iter      E             dE          RMSdq      gap      omega  full diag
   1    -28.4824670 -0.284825E+02  0.142E-01    4.12       0.0  T
   2    -28.4824825 -0.155500E-04  0.721E-02    4.13       1.0  T
   3    -28.4824775  0.505648E-05  0.352E-02    4.12       1.0  T
   4    -28.4824899 -0.124236E-04  0.104E-02    4.13       2.4  T
   5    -28.4824899  0.264939E-07  0.519E-03    4.13       4.8  T
   6    -28.4824901 -0.246557E-06  0.136E-03    4.13      18.4  T
   7    -28.4824901 -0.292170E-08  0.798E-04    4.13      31.3  T
   8    -28.4824901 -0.803354E-09  0.229E-04    4.13     109.0  T
     SCC iter.                  ...        0 min,  1.208 sec
     gradient                   ...        0 min,  0.240 sec
 * total energy  :   -28.1723739 Eh     change       -0.3832090E-03 Eh
   gradient norm :     0.0093961 Eh/α   predicted    -0.3772532E-03 (  -1.55%)
   displ. norm   :     0.3571169 α      lambda       -0.3565831E-03
   maximum displ.:     0.2637249 α      in ANC's #1, #2, #7, ...

........................................................................
.............................. CYCLE   11 ..............................
........................................................................

 iter      E             dE          RMSdq      gap      omega  full diag
   1    -28.4788880 -0.284789E+02  0.202E-01    4.11       0.0  T
   2    -28.4789047 -0.167484E-04  0.976E-02    4.10       1.0  T
   3    -28.4789065 -0.175517E-05  0.304E-02    4.10       1.0  T
   4    -28.4789068 -0.266651E-06  0.127E-02    4.10       2.0  T
   5    -28.4789071 -0.339405E-06  0.518E-03    4.10       4.8  T
   6    -28.4789073 -0.200945E-06  0.188E-03    4.10      13.3  T
   7    -28.4789073 -0.349552E-08  0.110E-03    4.10      22.7  T
   8    -28.4789073 -0.495455E-08  0.395E-04    4.10      63.3  T
   9    -28.4789073 -0.429278E-09  0.124E-04    4.10     202.0  T
     SCC iter.                  ...        0 min,  1.062 sec
     gradient                   ...        0 min,  0.195 sec
 * total energy  :   -28.1725177 Eh     change       -0.1438099E-03 Eh
   gradient norm :     0.0182775 Eh/α   predicted    -0.2010267E-03 (  39.79%)
   displ. norm   :     0.2142908 α      lambda       -0.4663801E-03
   maximum displ.:     0.1571742 α      in ANC's #1, #3, #2, ...

........................................................................
.............................. CYCLE   12 ..............................
........................................................................

 iter      E             dE          RMSdq      gap      omega  full diag
   1    -28.4802387 -0.284802E+02  0.874E-02    4.10       0.0  T
   2    -28.4802534 -0.147026E-04  0.535E-02    4.11       1.0  T
   3    -28.4802541 -0.755581E-06  0.252E-02    4.11       1.0  T
   4    -28.4802542 -0.118611E-06  0.682E-03    4.11       3.7  T
   5    -28.4802544 -0.169812E-06  0.404E-03    4.11       6.2  T
   6    -28.4802545 -0.850978E-07  0.133E-03    4.11      18.8  T
   7    -28.4802545 -0.415926E-08  0.784E-04    4.11      31.9  T
   8    -28.4802545 -0.236309E-08  0.401E-04    4.11      62.3  T
     SCC iter.                  ...        0 min,  1.086 sec
     gradient                   ...        0 min,  0.139 sec
 * total energy  :   -28.1727745 Eh     change       -0.2568355E-03 Eh
   gradient norm :     0.0059292 Eh/α   predicted    -0.2439002E-03 (  -5.04%)
   displ. norm   :     0.1862248 α      lambda       -0.2323806E-03
   maximum displ.:     0.1696902 α      in ANC's #1, #3, #12, ...

........................................................................
.............................. CYCLE   13 ..............................
........................................................................

 iter      E             dE          RMSdq      gap      omega  full diag
   1    -28.4828167 -0.284828E+02  0.874E-02    4.11       0.0  T
   2    -28.4828199 -0.316545E-05  0.423E-02    4.11       1.0  T
   3    -28.4828198  0.419532E-07  0.124E-02    4.11       2.0  T
   4    -28.4828205 -0.691294E-06  0.641E-03    4.11       3.9  T
   5    -28.4828207 -0.156152E-06  0.195E-03    4.11      12.8  T
   6    -28.4828207 -0.180464E-07  0.926E-04    4.11      27.0  T
   7    -28.4828207 -0.473479E-08  0.443E-04    4.11      56.5  T
     SCC iter.                  ...        0 min,  0.906 sec
     gradient                   ...        0 min,  0.235 sec
 * total energy  :   -28.1729551 Eh     change       -0.1806059E-03 Eh
   gradient norm :     0.0061619 Eh/α   predicted    -0.1202185E-03 ( -33.44%)
   displ. norm   :     0.4460515 α      lambda       -0.3752980E-03
   maximum displ.:     0.4049554 α      in ANC's #1, #3, #12, ...

........................................................................
.............................. CYCLE   14 ..............................
........................................................................

 iter      E             dE          RMSdq      gap      omega  full diag
   1    -28.4822310 -0.284822E+02  0.219E-01    4.09       0.0  T
   2    -28.4822537 -0.227028E-04  0.988E-02    4.08       1.0  T
   3    -28.4822559 -0.221254E-05  0.312E-02    4.08       1.0  T
   4    -28.4822563 -0.394163E-06  0.153E-02    4.08       1.6  T
   5    -28.4822571 -0.710766E-06  0.686E-03    4.08       3.6  T
   6    -28.4822573 -0.283184E-06  0.182E-03    4.08      13.8  T
   7    -28.4822573 -0.282259E-08  0.103E-03    4.08      24.4  T
   8    -28.4822573 -0.463786E-08  0.359E-04    4.08      69.7  T
   9    -28.4822573 -0.137966E-09  0.138E-04    4.08     181.0  T
     SCC iter.                  ...        0 min,  1.167 sec
     gradient                   ...        0 min,  0.227 sec
 * total energy  :   -28.1732141 Eh     change       -0.2589378E-03 Eh
   gradient norm :     0.0108378 Eh/α   predicted    -0.2249831E-03 ( -13.11%)
   displ. norm   :     0.3737195 α      lambda       -0.5245246E-03
   maximum displ.:     0.3000043 α      in ANC's #1, #2, #5, ...

........................................................................
.............................. CYCLE   15 ..............................
........................................................................

 iter      E             dE          RMSdq      gap      omega  full diag
   1    -28.4874884 -0.284875E+02  0.197E-01    4.08       0.0  T
   2    -28.4875056 -0.171368E-04  0.937E-02    4.08       1.0  T
   3    -28.4875050  0.582804E-06  0.308E-02    4.08       1.0  T
   4    -28.4875086 -0.355731E-05  0.157E-02    4.07       1.6  T
   5    -28.4875098 -0.128846E-05  0.504E-03    4.07       5.0  T
   6    -28.4875099 -0.430498E-07  0.167E-03    4.07      15.0  T
   7    -28.4875099 -0.149107E-07  0.822E-04    4.07      30.4  T
   8    -28.4875099 -0.191059E-08  0.328E-04    4.07      76.1  T
     SCC iter.                  ...        0 min,  0.937 sec
     gradient                   ...        0 min,  0.205 sec
 * total energy  :   -28.1732915 Eh     change       -0.7739567E-04 Eh
   gradient norm :     0.0160462 Eh/α   predicted    -0.2988906E-03 ( 286.19%)
   displ. norm   :     0.3297186 α      lambda       -0.4985649E-03
   maximum displ.:     0.2928709 α      in ANC's #1, #3, #30, ...

........................................................................
.............................. CYCLE   16 ..............................
........................................................................

 iter      E             dE          RMSdq      gap      omega  full diag
   1    -28.4818480 -0.284818E+02  0.161E-01    4.04       0.0  T
   2    -28.4818564 -0.837840E-05  0.738E-02    4.04       1.0  T
   3    -28.4818556  0.755703E-06  0.253E-02    4.04       1.0  T
   4    -28.4818579 -0.231734E-05  0.131E-02    4.04       1.9  T
   5    -28.4818588 -0.824634E-06  0.475E-03    4.04       5.3  T
   6    -28.4818588 -0.404380E-07  0.152E-03    4.04      16.4  T
   7    -28.4818588  0.123385E-08  0.751E-04    4.04      33.3  T
   8    -28.4818588 -0.368490E-08  0.228E-04    4.04     109.8  T
     SCC iter.                  ...        0 min,  1.170 sec
     gradient                   ...        0 min,  0.071 sec
 * total energy  :   -28.1735446 Eh     change       -0.2530990E-03 Eh
   gradient norm :     0.0107604 Eh/α   predicted    -0.2763812E-03 (   9.20%)
   displ. norm   :     0.0704934 α      lambda       -0.1600025E-03
   maximum displ.:     0.0503939 α      in ANC's #1, #5, #3, ...

........................................................................
.............................. CYCLE   17 ..............................
........................................................................

 iter      E             dE          RMSdq      gap      omega  full diag
   1    -28.4827984 -0.284828E+02  0.495E-02    4.05       0.0  T
   2    -28.4828015 -0.312348E-05  0.290E-02    4.05       1.0  T
   3    -28.4828018 -0.292790E-06  0.151E-02    4.05       1.7  T
   4    -28.4828028 -0.949446E-06  0.583E-03    4.05       4.3  T
   5    -28.4828030 -0.236904E-06  0.175E-03    4.05      14.3  T
   6    -28.4828030 -0.980297E-09  0.590E-04    4.05      42.4  T
   7    -28.4828030 -0.282147E-08  0.265E-04    4.05      94.3  T
     SCC iter.                  ...        0 min,  1.079 sec
     gradient                   ...        0 min,  0.197 sec
 * total energy  :   -28.1736458 Eh     change       -0.1012543E-03 Eh
   gradient norm :     0.0046823 Eh/α   predicted    -0.8039930E-04 ( -20.60%)
   displ. norm   :     0.2484404 α      lambda       -0.1731951E-03
   maximum displ.:     0.2259784 α      in ANC's #1, #30, #11, ...

........................................................................
.............................. CYCLE   18 ..............................
........................................................................

 iter      E             dE          RMSdq      gap      omega  full diag
   1    -28.4817100 -0.284817E+02  0.118E-01    4.04       0.0  T
   2    -28.4817150 -0.506131E-05  0.530E-02    4.04       1.0  T
   3    -28.4817150 -0.617657E-08  0.171E-02    4.04       1.5  T
   4    -28.4817156 -0.590157E-06  0.988E-03    4.04       2.5  T
   5    -28.4817163 -0.647356E-06  0.343E-03    4.04       7.3  T
   6    -28.4817163 -0.225255E-07  0.117E-03    4.04      21.4  T
   7    -28.4817163 -0.265589E-08  0.644E-04    4.04      38.8  T
   8    -28.4817163 -0.114462E-08  0.191E-04    4.04     130.9  T
     SCC iter.                  ...        0 min,  0.805 sec
     gradient                   ...        0 min,  0.176 sec
 * total energy  :   -28.1737594 Eh     change       -0.1135835E-03 Eh
   gradient norm :     0.0064539 Eh/α   predicted    -0.9193985E-04 ( -19.06%)
   displ. norm   :     0.2796329 α      lambda       -0.2091863E-03
   maximum displ.:     0.2375215 α      in ANC's #1, #2, #30, ...

........................................................................
.............................. CYCLE   19 ..............................
........................................................................

 iter      E             dE          RMSdq      gap      omega  full diag
   1    -28.4817209 -0.284817E+02  0.158E-01    4.02       0.0  T
   2    -28.4817330 -0.120397E-04  0.743E-02    4.03       1.0  T
   3    -28.4817311  0.190468E-05  0.269E-02    4.03       1.0  T
   4    -28.4817354 -0.434481E-05  0.139E-02    4.03       1.8  T
   5    -28.4817364 -0.958490E-06  0.450E-03    4.03       5.6  T
   6    -28.4817364 -0.431880E-07  0.172E-03    4.03      14.6  T
   7    -28.4817364 -0.166466E-07  0.833E-04    4.03      30.0  T
   8    -28.4817364 -0.100250E-08  0.348E-04    4.03      71.8  T
     SCC iter.                  ...        0 min,  1.419 sec
     gradient                   ...        0 min,  0.181 sec
 * total energy  :   -28.1738446 Eh     change       -0.8520922E-04 Eh
   gradient norm :     0.0073000 Eh/α   predicted    -0.1127709E-03 (  32.35%)
   displ. norm   :     0.1980745 α      lambda       -0.1205049E-03
   maximum displ.:     0.1720035 α      in ANC's #1, #12, #11, ...

........................................................................
.............................. CYCLE   20 ..............................
........................................................................

 iter      E             dE          RMSdq      gap      omega  full diag
   1    -28.4813663 -0.284814E+02  0.120E-01    4.02       0.0  T
   2    -28.4813804 -0.141270E-04  0.518E-02    4.02       1.0  T
   3    -28.4813810 -0.629604E-06  0.229E-02    4.02       1.1  T
   4    -28.4813809  0.124631E-06  0.990E-03    4.02       2.5  T
   5    -28.4813815 -0.641848E-06  0.397E-03    4.02       6.3  T
   6    -28.4813816 -0.455604E-07  0.101E-03    4.02      24.6  T
   7    -28.4813816 -0.472559E-08  0.550E-04    4.02      45.5  T
   8    -28.4813816 -0.889770E-09  0.244E-04    4.02     102.4  T
     SCC iter.                  ...        0 min,  0.928 sec
     gradient                   ...        0 min,  0.160 sec
 * total energy  :   -28.1739083 Eh     change       -0.6368261E-04 Eh
   gradient norm :     0.0081038 Eh/α   predicted    -0.6261722E-04 (  -1.67%)
   displ. norm   :     0.0400565 α      lambda       -0.8188770E-04
   maximum displ.:     0.0225323 α      in ANC's #1, #3, #8, ...
 * RMSD in coord.:     1.0175379 α      energy gain  -0.1881109E-01 Eh

generating ANC from exact Hessian ...
Using Lindh-Hessian (1995)
 Shifting diagonal of input Hessian by    7.2077675462676044E-003
 Lowest  eigenvalues of input Hessian
    0.000000    0.000000    0.000000    0.000000    0.000000    0.000000
    0.010000    0.011491    0.016007    0.017043    0.018266    0.028246
    0.033964    0.041879    0.055706    0.067076    0.073468    0.078038
 Highest eigenvalues
    1.595217    1.796940    1.908736    2.044368    2.138880    2.535112


........................................................................
.............................. CYCLE   21 ..............................
........................................................................

 iter      E             dE          RMSdq      gap      omega  full diag
   1    -28.4838972 -0.284839E+02  0.330E-02    4.02       0.0  T
   2    -28.4838980 -0.748061E-06  0.181E-02    4.02       1.4  T
   3    -28.4838978  0.151973E-06  0.648E-03    4.02       3.9  T
   4    -28.4838981 -0.287368E-06  0.308E-03    4.02       8.1  T
   5    -28.4838981 -0.371666E-07  0.135E-03    4.02      18.6  T
   6    -28.4838981 -0.421702E-08  0.470E-04    4.02      53.2  T
   7    -28.4838981 -0.854058E-09  0.274E-04    4.02      91.1  T
     SCC iter.                  ...        0 min,  2.116 sec
     gradient                   ...        0 min,  0.174 sec
 * total energy  :   -28.1739460 Eh     change       -0.3767604E-04 Eh
   gradient norm :     0.0062404 Eh/α   predicted     0.0000000E+00 (-100.00%)
   displ. norm   :     0.0383816 α      lambda       -0.5374400E-04
   maximum displ.:     0.0284790 α      in ANC's #5, #1, #3, ...

........................................................................
.............................. CYCLE   22 ..............................
........................................................................

 iter      E             dE          RMSdq      gap      omega  full diag
   1    -28.4836284 -0.284836E+02  0.256E-02    4.02       0.0  T
   2    -28.4836287 -0.288525E-06  0.129E-02    4.02       1.9  T
   3    -28.4836286  0.342502E-07  0.447E-03    4.02       5.6  T
   4    -28.4836287 -0.990165E-07  0.228E-03    4.02      11.0  T
   5    -28.4836288 -0.164903E-07  0.956E-04    4.02      26.1  T
   6    -28.4836288 -0.244679E-08  0.355E-04    4.02      70.5  T
     SCC iter.                  ...        0 min,  0.696 sec
     gradient                   ...        0 min,  0.151 sec
 * total energy  :   -28.1739891 Eh     change       -0.4308614E-04 Eh
   gradient norm :     0.0031131 Eh/α   predicted    -0.2691119E-04 ( -37.54%)
   displ. norm   :     0.1021896 α      lambda       -0.7745328E-04
   maximum displ.:     0.0748698 α      in ANC's #5, #1, #3, ...

........................................................................
.............................. CYCLE   23 ..............................
........................................................................

 iter      E             dE          RMSdq      gap      omega  full diag
   1    -28.4832733 -0.284833E+02  0.614E-02    4.04       0.0  T
   2    -28.4832749 -0.158367E-05  0.298E-02    4.04       1.0  T
   3    -28.4832747  0.193982E-06  0.106E-02    4.04       2.4  T
   4    -28.4832753 -0.561420E-06  0.555E-03    4.04       4.5  T
   5    -28.4832754 -0.103280E-06  0.227E-03    4.04      11.0  T
   6    -28.4832754 -0.133998E-07  0.764E-04    4.04      32.7  T
   7    -28.4832754 -0.707221E-09  0.511E-04    4.04      49.0  T
     SCC iter.                  ...        0 min,  0.589 sec
     gradient                   ...        0 min,  0.083 sec
 * total energy  :   -28.1740399 Eh     change       -0.5079548E-04 Eh
   gradient norm :     0.0026316 Eh/α   predicted    -0.3913284E-04 ( -22.96%)
   displ. norm   :     0.0882377 α      lambda       -0.3398947E-04
   maximum displ.:     0.0605547 α      in ANC's #5, #1, #2, ...

........................................................................
.............................. CYCLE   24 ..............................
........................................................................

 iter      E             dE          RMSdq      gap      omega  full diag
   1    -28.4831348 -0.284831E+02  0.508E-02    4.05       0.0  T
   2    -28.4831358 -0.984824E-06  0.239E-02    4.05       1.0  T
   3    -28.4831358  0.191640E-07  0.813E-03    4.05       3.1  T
   4    -28.4831360 -0.203674E-06  0.438E-03    4.05       5.7  T
   5    -28.4831361 -0.786466E-07  0.178E-03    4.05      14.1  T
   6    -28.4831361 -0.991473E-08  0.558E-04    4.05      44.8  T
   7    -28.4831361 -0.976922E-09  0.365E-04    4.05      68.5  T
     SCC iter.                  ...        0 min,  1.179 sec
     gradient                   ...        0 min,  0.081 sec
 * total energy  :   -28.1740667 Eh     change       -0.2684519E-04 Eh
   gradient norm :     0.0033592 Eh/α   predicted    -0.1712902E-04 ( -36.19%)
   displ. norm   :     0.1259057 α      lambda       -0.4313756E-04
   maximum displ.:     0.0800191 α      in ANC's #5, #1, #2, ...

........................................................................
.............................. CYCLE   25 ..............................
........................................................................

 iter      E             dE          RMSdq      gap      omega  full diag
   1    -28.4830277 -0.284830E+02  0.702E-02    4.06       0.0  T
   2    -28.4830296 -0.191898E-05  0.327E-02    4.05       1.0  T
   3    -28.4830297 -0.978645E-07  0.110E-02    4.05       2.3  T
   4    -28.4830299 -0.199890E-06  0.571E-03    4.05       4.4  T
   5    -28.4830301 -0.140234E-06  0.225E-03    4.05      11.1  T
   6    -28.4830301 -0.176693E-07  0.737E-04    4.05      33.9  T
   7    -28.4830301 -0.235850E-08  0.454E-04    4.05      55.0  T
     SCC iter.                  ...        0 min,  0.730 sec
     gradient                   ...        0 min,  0.148 sec
 * total energy  :   -28.1740985 Eh     change       -0.3179830E-04 Eh
   gradient norm :     0.0025577 Eh/α   predicted    -0.2191043E-04 ( -31.10%)
   displ. norm   :     0.0970293 α      lambda       -0.2952356E-04
   maximum displ.:     0.0695407 α      in ANC's #1, #5, #2, ...

........................................................................
.............................. CYCLE   26 ..............................
........................................................................

 iter      E             dE          RMSdq      gap      omega  full diag
   1    -28.4831517 -0.284832E+02  0.499E-02    4.06       0.0  T
   2    -28.4831527 -0.100073E-05  0.235E-02    4.06       1.1  T
   3    -28.4831528 -0.101127E-06  0.772E-03    4.06       3.2  T
   4    -28.4831529 -0.487167E-07  0.381E-03    4.06       6.6  T
   5    -28.4831529 -0.587346E-07  0.135E-03    4.06      18.5  T
   6    -28.4831529 -0.672739E-08  0.503E-04    4.06      49.7  T
   7    -28.4831529 -0.647955E-09  0.308E-04    4.06      81.3  T
     SCC iter.                  ...        0 min,  0.815 sec
     gradient                   ...        0 min,  0.141 sec
 * total energy  :   -28.1741219 Eh     change       -0.2345111E-04 Eh
   gradient norm :     0.0018379 Eh/α   predicted    -0.1489880E-04 ( -36.47%)
   displ. norm   :     0.1486233 α      lambda       -0.3380181E-04
   maximum displ.:     0.1147049 α      in ANC's #1, #5, #2, ...

........................................................................
.............................. CYCLE   27 ..............................
........................................................................

 iter      E             dE          RMSdq      gap      omega  full diag
   1    -28.4835005 -0.284835E+02  0.676E-02    4.06       0.0  T
   2    -28.4835022 -0.173353E-05  0.330E-02    4.06       1.0  T
   3    -28.4835025 -0.274865E-06  0.100E-02    4.06       2.5  T
   4    -28.4835025 -0.301297E-07  0.462E-03    4.06       5.4  T
   5    -28.4835026 -0.643545E-07  0.146E-03    4.06      17.1  T
   6    -28.4835026 -0.112672E-07  0.624E-04    4.06      40.1  T
   7    -28.4835026 -0.317684E-10  0.263E-04    4.06      95.1  T
     SCC iter.                  ...        0 min,  0.677 sec
     gradient                   ...        0 min,  0.184 sec
 * total energy  :   -28.1741628 Eh     change       -0.4082684E-04 Eh
   gradient norm :     0.0027687 Eh/α   predicted    -0.1706646E-04 ( -58.20%)
   displ. norm   :     0.1633111 α      lambda       -0.5530214E-04
   maximum displ.:     0.1244486 α      in ANC's #1, #6, #5, ...

........................................................................
.............................. CYCLE   28 ..............................
........................................................................

 iter      E             dE          RMSdq      gap      omega  full diag
   1    -28.4832436 -0.284832E+02  0.715E-02    4.06       0.0  T
   2    -28.4832454 -0.183308E-05  0.354E-02    4.06       1.0  T
   3    -28.4832457 -0.326544E-06  0.105E-02    4.06       2.4  T
   4    -28.4832458 -0.288021E-07  0.465E-03    4.06       5.4  T
   5    -28.4832458 -0.488328E-07  0.151E-03    4.06      16.5  T
   6    -28.4832458 -0.146872E-07  0.686E-04    4.06      36.4  T
   7    -28.4832458  0.258154E-09  0.320E-04    4.06      78.0  T
     SCC iter.                  ...        0 min,  1.477 sec
     gradient                   ...        0 min,  0.146 sec
 * total energy  :   -28.1742123 Eh     change       -0.4948227E-04 Eh
   gradient norm :     0.0030961 Eh/α   predicted    -0.2838961E-04 ( -42.63%)
   displ. norm   :     0.4857245 α      lambda       -0.1680849E-03
   maximum displ.:     0.3758931 α      in ANC's #1, #6, #5, ...

........................................................................
.............................. CYCLE   29 ..............................
........................................................................

 iter      E             dE          RMSdq      gap      omega  full diag
   1    -28.4805784 -0.284806E+02  0.202E-01    4.07       0.0  T
   2    -28.4805924 -0.139885E-04  0.101E-01    4.06       1.0  T
   3    -28.4805950 -0.262941E-05  0.292E-02    4.06       1.0  T
   4    -28.4805952 -0.193567E-06  0.125E-02    4.06       2.0  T
   5    -28.4805954 -0.257515E-06  0.416E-03    4.06       6.0  T
   6    -28.4805956 -0.126204E-06  0.199E-03    4.06      12.6  T
   7    -28.4805956  0.166384E-08  0.980E-04    4.06      25.5  T
   8    -28.4805956 -0.745100E-08  0.344E-04    4.06      72.8  T
     SCC iter.                  ...        0 min,  0.662 sec
     gradient                   ...        0 min,  0.106 sec
 * total energy  :   -28.1742131 Eh     change       -0.8688311E-06 Eh
   gradient norm :     0.0110141 Eh/α   predicted    -0.1038756E-03 (*******%)
   displ. norm   :     0.1999240 α      lambda       -0.2948501E-03
   maximum displ.:     0.1291562 α      in ANC's #1, #5, #2, ...

........................................................................
.............................. CYCLE   30 ..............................
........................................................................

 iter      E             dE          RMSdq      gap      omega  full diag
   1    -28.4846572 -0.284847E+02  0.109E-01    4.06       0.0  T
   2    -28.4846622 -0.501097E-05  0.544E-02    4.06       1.0  T
   3    -28.4846625 -0.271187E-06  0.190E-02    4.06       1.3  T
   4    -28.4846629 -0.421133E-06  0.781E-03    4.06       3.2  T
   5    -28.4846632 -0.287597E-06  0.250E-03    4.06      10.0  T
   6    -28.4846632 -0.219305E-07  0.897E-04    4.06      27.9  T
   7    -28.4846632  0.737508E-10  0.448E-04    4.06      55.8  T
     SCC iter.                  ...        0 min,  0.516 sec
     gradient                   ...        0 min,  0.073 sec
 * total energy  :   -28.1742912 Eh     change       -0.7811099E-04 Eh
   gradient norm :     0.0041267 Eh/α   predicted    -0.1533176E-03 (  96.28%)
   displ. norm   :     0.0602097 α      lambda       -0.5639057E-04
   maximum displ.:     0.0458903 α      in ANC's #5, #1, #2, ...

........................................................................
.............................. CYCLE   31 ..............................
........................................................................

 iter      E             dE          RMSdq      gap      omega  full diag
   1    -28.4836897 -0.284837E+02  0.444E-02    4.06       0.0  T
   2    -28.4836906 -0.870032E-06  0.209E-02    4.06       1.2  T
   3    -28.4836906  0.170667E-07  0.783E-03    4.06       3.2  T
   4    -28.4836907 -0.171040E-06  0.328E-03    4.06       7.6  T
   5    -28.4836908 -0.411820E-07  0.959E-04    4.06      26.1  T
   6    -28.4836908 -0.307596E-08  0.258E-04    4.06      96.8  T
     SCC iter.                  ...        0 min,  0.384 sec
     gradient                   ...        0 min,  0.116 sec
 * total energy  :   -28.1743294 Eh     change       -0.3818940E-04 Eh
   gradient norm :     0.0022512 Eh/α   predicted    -0.2829939E-04 ( -25.90%)
   displ. norm   :     0.1676350 α      lambda       -0.5261725E-04
   maximum displ.:     0.1252215 α      in ANC's #1, #5, #6, ...

........................................................................
.............................. CYCLE   32 ..............................
........................................................................

 iter      E             dE          RMSdq      gap      omega  full diag
   1    -28.4824702 -0.284825E+02  0.795E-02    4.07       0.0  T
   2    -28.4824725 -0.234051E-05  0.383E-02    4.07       1.0  T
   3    -28.4824728 -0.236141E-06  0.119E-02    4.07       2.1  T
   4    -28.4824729 -0.167333E-06  0.592E-03    4.07       4.2  T
   5    -28.4824730 -0.106388E-06  0.169E-03    4.07      14.8  T
   6    -28.4824731 -0.142227E-07  0.644E-04    4.07      38.8  T
   7    -28.4824731  0.308436E-09  0.330E-04    4.07      75.7  T
     SCC iter.                  ...        0 min,  0.356 sec
     gradient                   ...        0 min,  0.059 sec
 * total energy  :   -28.1743605 Eh     change       -0.3104139E-04 Eh
   gradient norm :     0.0050820 Eh/α   predicted    -0.2704784E-04 ( -12.87%)
   displ. norm   :     0.0531754 α      lambda       -0.2737885E-04
   maximum displ.:     0.0367524 α      in ANC's #1, #8, #6, ...

........................................................................
.............................. CYCLE   33 ..............................
........................................................................

 iter      E             dE          RMSdq      gap      omega  full diag
   1    -28.4826831 -0.284827E+02  0.260E-02    4.07       0.0  T
   2    -28.4826834 -0.266488E-06  0.126E-02    4.07       2.0  T
   3    -28.4826834 -0.210545E-07  0.369E-03    4.07       6.8  T
   4    -28.4826834 -0.172401E-07  0.194E-03    4.07      12.9  T
   5    -28.4826834 -0.170325E-07  0.485E-04    4.07      51.5  T
   6    -28.4826834 -0.286125E-09  0.175E-04    4.07     142.8  T
     SCC iter.                  ...        0 min,  0.391 sec
     gradient                   ...        0 min,  0.002 sec
 * total energy  :   -28.1743838 Eh     change       -0.2330333E-04 Eh
   gradient norm :     0.0043408 Eh/α   predicted    -0.1372701E-04 ( -41.09%)
   displ. norm   :     0.1088321 α      lambda       -0.5800359E-04
   maximum displ.:     0.0675224 α      in ANC's #1, #8, #5, ...

........................................................................
.............................. CYCLE   34 ..............................
........................................................................

 iter      E             dE          RMSdq      gap      omega  full diag
   1    -28.4834340 -0.284834E+02  0.530E-02    4.07       0.0  T
   2    -28.4834352 -0.116953E-05  0.263E-02    4.07       1.0  T
   3    -28.4834353 -0.101002E-06  0.771E-03    4.07       3.2  T
   4    -28.4834354 -0.479232E-07  0.390E-03    4.07       6.4  T
   5    -28.4834354 -0.765188E-07  0.107E-03    4.07      23.5  T
   6    -28.4834354 -0.155366E-08  0.336E-04    4.07      74.4  T
   7    -28.4834354  0.256719E-10  0.167E-04    4.07     149.9  T
     SCC iter.                  ...        0 min,  0.404 sec
     gradient                   ...        0 min,  0.088 sec
 * total energy  :   -28.1744204 Eh     change       -0.3659449E-04 Eh
   gradient norm :     0.0022116 Eh/α   predicted    -0.2934608E-04 ( -19.81%)
   displ. norm   :     0.0887504 α      lambda       -0.1919349E-04
   maximum displ.:     0.0520113 α      in ANC's #1, #5, #6, ...

........................................................................
.............................. CYCLE   35 ..............................
........................................................................

 iter      E             dE          RMSdq      gap      omega  full diag
   1    -28.4832608 -0.284833E+02  0.417E-02    4.08       0.0  T
   2    -28.4832614 -0.571965E-06  0.210E-02    4.08       1.2  T
   3    -28.4832614 -0.619997E-07  0.609E-03    4.08       4.1  T
   4    -28.4832615 -0.385232E-07  0.322E-03    4.08       7.8  T
   5    -28.4832615 -0.413994E-07  0.786E-04    4.08      31.8  T
   6    -28.4832615 -0.145622E-08  0.383E-04    4.08      65.3  T
     SCC iter.                  ...        0 min,  0.427 sec
     gradient                   ...        0 min,  0.061 sec
 * total energy  :   -28.1744350 Eh     change       -0.1468157E-04 Eh
   gradient norm :     0.0031727 Eh/α   predicted    -0.9670940E-05 ( -34.13%)
   displ. norm   :     0.1115989 α      lambda       -0.3606114E-04
   maximum displ.:     0.0662175 α      in ANC's #5, #1, #6, ...

........................................................................
.............................. CYCLE   36 ..............................
........................................................................

 iter      E             dE          RMSdq      gap      omega  full diag
   1    -28.4836911 -0.284837E+02  0.536E-02    4.09       0.0  T
   2    -28.4836919 -0.823452E-06  0.278E-02    4.09       1.0  T
   3    -28.4836920 -0.101022E-06  0.760E-03    4.09       3.3  T
   4    -28.4836921 -0.454411E-07  0.410E-03    4.09       6.1  T
   5    -28.4836921 -0.824958E-07  0.907E-04    4.09      27.6  T
   6    -28.4836921 -0.141877E-08  0.514E-04    4.09      48.6  T
     SCC iter.                  ...        0 min,  0.409 sec
     gradient                   ...        0 min,  0.064 sec
 * total energy  :   -28.1744609 Eh     change       -0.2589065E-04 Eh
   gradient norm :     0.0031330 Eh/α   predicted    -0.1825516E-04 ( -29.49%)
   displ. norm   :     0.1183583 α      lambda       -0.3245308E-04
   maximum displ.:     0.0728619 α      in ANC's #5, #6, #1, ...

........................................................................
.............................. CYCLE   37 ..............................
........................................................................

 iter      E             dE          RMSdq      gap      omega  full diag
   1    -28.4834749 -0.284835E+02  0.567E-02    4.09       0.0  T
   2    -28.4834759 -0.983973E-06  0.298E-02    4.09       1.0  T
   3    -28.4834760 -0.121956E-06  0.848E-03    4.09       2.9  T
   4    -28.4834761 -0.612919E-07  0.408E-03    4.09       6.1  T
   5    -28.4834761 -0.574077E-07  0.115E-03    4.09      21.7  T
   6    -28.4834761 -0.731777E-08  0.518E-04    4.09      48.3  T
   7    -28.4834761 -0.668301E-10  0.166E-04    4.09     150.2  T
     SCC iter.                  ...        0 min,  0.504 sec
     gradient                   ...        0 min,  0.137 sec
 * total energy  :   -28.1744845 Eh     change       -0.2359412E-04 Eh
   gradient norm :     0.0036836 Eh/α   predicted    -0.1645394E-04 ( -30.26%)
   displ. norm   :     0.1075167 α      lambda       -0.4907428E-04
   maximum displ.:     0.0718419 α      in ANC's #5, #6, #2, ...

........................................................................
.............................. CYCLE   38 ..............................
........................................................................

 iter      E             dE          RMSdq      gap      omega  full diag
   1    -28.4841926 -0.284842E+02  0.515E-02    4.10       0.0  T
   2    -28.4841934 -0.839067E-06  0.285E-02    4.10       1.0  T
   3    -28.4841935 -0.320299E-07  0.791E-03    4.10       3.2  T
   4    -28.4841935 -0.718295E-07  0.375E-03    4.10       6.7  T
   5    -28.4841936 -0.899242E-07  0.138E-03    4.10      18.1  T
   6    -28.4841936 -0.482879E-08  0.549E-04    4.10      45.5  T
   7    -28.4841936 -0.875001E-09  0.321E-04    4.10      77.9  T
     SCC iter.                  ...        0 min,  0.269 sec
     gradient                   ...        0 min,  0.149 sec
 * total energy  :   -28.1745122 Eh     change       -0.2764660E-04 Eh
   gradient norm :     0.0027871 Eh/α   predicted    -0.2481975E-04 ( -10.22%)
   displ. norm   :     0.1110055 α      lambda       -0.2187495E-04
   maximum displ.:     0.0653563 α      in ANC's #5, #6, #2, ...

........................................................................
.............................. CYCLE   39 ..............................
........................................................................

 iter      E             dE          RMSdq      gap      omega  full diag
   1    -28.4833543 -0.284834E+02  0.527E-02    4.11       0.0  T
   2    -28.4833554 -0.112522E-05  0.283E-02    4.11       1.0  T
   3    -28.4833555 -0.697414E-07  0.942E-03    4.11       2.7  T
   4    -28.4833556 -0.712898E-07  0.386E-03    4.11       6.5  T
   5    -28.4833557 -0.664206E-07  0.163E-03    4.11      15.3  T
   6    -28.4833557 -0.117189E-07  0.597E-04    4.11      41.8  T
   7    -28.4833557 -0.617586E-09  0.358E-04    4.11      69.9  T
     SCC iter.                  ...        0 min,  0.332 sec
     gradient                   ...        0 min,  0.147 sec
 * total energy  :   -28.1745189 Eh     change       -0.6686644E-05 Eh
   gradient norm :     0.0038248 Eh/α   predicted    -0.1107376E-04 (  65.61%)
   displ. norm   :     0.0365722 α      lambda       -0.2746676E-04
   maximum displ.:     0.0251063 α      in ANC's #1, #5, #2, ...

........................................................................
.............................. CYCLE   40 ..............................
........................................................................

 iter      E             dE          RMSdq      gap      omega  full diag
   1    -28.4839859 -0.284840E+02  0.224E-02    4.11       0.0  T
   2    -28.4839861 -0.178144E-06  0.109E-02    4.11       2.3  T
   3    -28.4839860  0.461314E-07  0.380E-03    4.11       6.6  T
   4    -28.4839861 -0.967184E-07  0.175E-03    4.11      14.3  T
   5    -28.4839861 -0.514790E-08  0.474E-04    4.11      52.8  T
   6    -28.4839861 -0.142455E-08  0.180E-04    4.11     138.9  T
     SCC iter.                  ...        0 min,  0.432 sec
     gradient                   ...        0 min,  0.103 sec
 * total energy  :   -28.1745382 Eh     change       -0.1929261E-04 Eh
   gradient norm :     0.0018742 Eh/α   predicted    -0.1375047E-04 ( -28.73%)
   displ. norm   :     0.0953494 α      lambda       -0.2534503E-04
   maximum displ.:     0.0488173 α      in ANC's #4, #6, #1, ...

........................................................................
.............................. CYCLE   41 ..............................
........................................................................

 iter      E             dE          RMSdq      gap      omega  full diag
   1    -28.4841504 -0.284842E+02  0.446E-02    4.11       0.0  T
   2    -28.4841510 -0.640323E-06  0.254E-02    4.11       1.0  T
   3    -28.4841506  0.460149E-06  0.899E-03    4.11       2.8  T
   4    -28.4841512 -0.662769E-06  0.322E-03    4.11       7.8  T
   5    -28.4841513 -0.423421E-07  0.121E-03    4.11      20.6  T
   6    -28.4841513 -0.261657E-09  0.465E-04    4.11      53.7  T
   7    -28.4841513 -0.152121E-08  0.202E-04    4.11     124.0  T
     SCC iter.                  ...        0 min,  0.489 sec
     gradient                   ...        0 min,  0.060 sec
 * total energy  :   -28.1745578 Eh     change       -0.1960522E-04 Eh
   gradient norm :     0.0018932 Eh/α   predicted    -0.1272392E-04 ( -35.10%)
   displ. norm   :     0.0604754 α      lambda       -0.1025681E-04
   maximum displ.:     0.0279204 α      in ANC's #4, #5, #6, ...

........................................................................
.............................. CYCLE   42 ..............................
........................................................................

 iter      E             dE          RMSdq      gap      omega  full diag
   1    -28.4836904 -0.284837E+02  0.249E-02    4.12       0.0  T
   2    -28.4836906 -0.163412E-06  0.146E-02    4.12       1.7  T
   3    -28.4836905  0.378149E-07  0.342E-03    4.12       7.3  T
   4    -28.4836906 -0.789860E-07  0.120E-03    4.12      20.9  T
   5    -28.4836906 -0.256980E-08  0.527E-04    4.12      47.4  T
   6    -28.4836906 -0.125904E-08  0.178E-04    4.12     140.7  T
     SCC iter.                  ...        0 min,  0.421 sec
     gradient                   ...        0 min,  0.002 sec
 * total energy  :   -28.1745645 Eh     change       -0.6713123E-05 Eh
   gradient norm :     0.0027891 Eh/α   predicted    -0.5135384E-05 ( -23.50%)
   displ. norm   :     0.0290347 α      lambda       -0.1130638E-04
   maximum displ.:     0.0162129 α      in ANC's #4, #1, #8, ...
 * RMSD in coord.:     0.4520064 α      energy gain  -0.6561803E-03 Eh

generating ANC from exact Hessian ...
Using Lindh-Hessian (1995)
 Shifting diagonal of input Hessian by    7.2136746784490467E-003
 Lowest  eigenvalues of input Hessian
    0.000000    0.000000    0.000000    0.000000    0.000000    0.000000
    0.010000    0.011628    0.015767    0.017228    0.018694    0.029464
    0.033464    0.042343    0.055597    0.067259    0.072080    0.080008
 Highest eigenvalues
    1.598283    1.797315    1.912690    2.040522    2.136605    2.547444


........................................................................
.............................. CYCLE   43 ..............................
........................................................................

 iter      E             dE          RMSdq      gap      omega  full diag
   1    -28.4837833 -0.284838E+02  0.159E-02    4.11       0.0  T
   2    -28.4837835 -0.239559E-06  0.747E-03    4.12       3.3  T
   3    -28.4837835 -0.106840E-08  0.357E-03    4.12       7.0  T
   4    -28.4837835 -0.118417E-07  0.150E-03    4.12      16.6  T
   5    -28.4837835 -0.177285E-07  0.592E-04    4.12      42.2  T
   6    -28.4837835 -0.598952E-09  0.169E-04    4.12     148.4  T
     SCC iter.                  ...        0 min,  0.352 sec
     gradient                   ...        0 min,  0.068 sec
 * total energy  :   -28.1745729 Eh     change       -0.8451642E-05 Eh
   gradient norm :     0.0018191 Eh/α   predicted     0.0000000E+00 (-100.00%)
   displ. norm   :     0.0219359 α      lambda       -0.6103841E-05
   maximum displ.:     0.0182571 α      in ANC's #1, #5, #8, ...

........................................................................
.............................. CYCLE   44 ..............................
........................................................................

 iter      E             dE          RMSdq      gap      omega  full diag
   1    -28.4839402 -0.284839E+02  0.126E-02    4.12       0.0  T
   2    -28.4839403 -0.769431E-07  0.608E-03    4.12       4.1  T
   3    -28.4839403  0.246689E-07  0.249E-03    4.12      10.1  T
   4    -28.4839403 -0.453503E-07  0.113E-03    4.12      22.2  T
   5    -28.4839403 -0.487028E-08  0.429E-04    4.12      58.3  T
   6    -28.4839403 -0.226322E-09  0.141E-04    4.12     176.9  T
     SCC iter.                  ...        0 min,  0.250 sec
     gradient                   ...        0 min,  0.072 sec
 * total energy  :   -28.1745797 Eh     change       -0.6768475E-05 Eh
   gradient norm :     0.0006862 Eh/α   predicted    -0.3054424E-05 ( -54.87%)
   displ. norm   :     0.0366528 α      lambda       -0.5361316E-05
   maximum displ.:     0.0294816 α      in ANC's #1, #5, #4, ...

........................................................................
.............................. CYCLE   45 ..............................
........................................................................

 iter      E             dE          RMSdq      gap      omega  full diag
   1    -28.4839088 -0.284839E+02  0.190E-02    4.11       0.0  T
   2    -28.4839090 -0.184273E-06  0.918E-03    4.11       2.7  T
   3    -28.4839090  0.377036E-07  0.366E-03    4.11       6.8  T
   4    -28.4839091 -0.744321E-07  0.186E-03    4.11      13.4  T
   5    -28.4839091 -0.181234E-07  0.702E-04    4.11      35.6  T
   6    -28.4839091 -0.555005E-09  0.213E-04    4.11     117.3  T
     SCC iter.                  ...        0 min,  0.327 sec
     gradient                   ...        0 min,  0.073 sec
 * total energy  :   -28.1745855 Eh     change       -0.5799403E-05 Eh
   gradient norm :     0.0007005 Eh/α   predicted    -0.2682073E-05 ( -53.75%)
   displ. norm   :     0.0384732 α      lambda       -0.3386448E-05
   maximum displ.:     0.0296667 α      in ANC's #1, #4, #5, ...

........................................................................
.............................. CYCLE   46 ..............................
........................................................................

 iter      E             dE          RMSdq      gap      omega  full diag
   1    -28.4838574 -0.284839E+02  0.174E-02    4.11       0.0  T
   2    -28.4838575 -0.137927E-06  0.833E-03    4.11       3.0  T
   3    -28.4838575  0.936162E-08  0.315E-03    4.11       7.9  T
   4    -28.4838575 -0.226361E-07  0.168E-03    4.11      14.9  T
   5    -28.4838575 -0.181691E-07  0.641E-04    4.11      39.0  T
   6    -28.4838575 -0.658105E-09  0.186E-04    4.11     134.4  T
     SCC iter.                  ...        0 min,  0.201 sec
     gradient                   ...        0 min,  0.068 sec
 * total energy  :   -28.1745896 Eh     change       -0.4084715E-05 Eh
   gradient norm :     0.0008411 Eh/α   predicted    -0.1695015E-05 ( -58.50%)
   displ. norm   :     0.0549913 α      lambda       -0.4124734E-05
   maximum displ.:     0.0393925 α      in ANC's #1, #4, #3, ...

   *** GEOMETRY OPTIMIZATION CONVERGED AFTER 46 ITERATIONS ***

------------------------------------------------------------------------
 total energy gain   :        -0.0194924 Eh      -12.2316 kcal/mol
 total RMSD          :         1.2601776 a0        0.6669 Å
 total power (kW/mol):        -1.1125482 (step)   -1.0456 (real)
------------------------------------------------------------------------

 ANCopt (total)                0 d,  0 h,  0 min, 48.943 sec
 optimizer setup                ...        0 min,  0.000 sec (  0.000%)
 model hessian                  ...        0 min,  0.006 sec (  0.012%)
 ANC generation                 ...        0 min,  0.001 sec (  0.003%)
 coordinate transformation      ...        0 min,  0.000 sec (  0.001%)
 single point calculation       ...        0 min, 48.358 sec ( 98.805%)
 optimization log               ...        0 min,  0.004 sec (  0.008%)
 hessian update                 ...        0 min,  0.529 sec (  1.080%)
 rational function              ...        0 min,  0.011 sec (  0.023%)

================
 final structure:
================
16
 xtb: 6.7.1 (edcfbbe)
N            0.17318536426447        1.87040489211374        0.10397006959015
N           -0.84427367467969        2.24979250145757       -0.64871749503549
C           -1.56046643113918        1.15899416299189       -0.86118250531103
C           -0.99370767815897        0.03967421950406       -0.22829721674463
C           -1.47105370654731       -1.36784019720045       -0.21423823830463
C            0.13981385580327        0.54912307484258        0.38079916933746
S            1.41603578506762       -0.17920962447632        1.41300704942630
O            2.33308947993598        0.94541572029823        1.60428396002854
N            2.01596866050596       -1.18816302336158        0.14389096850123
H            0.88743751774736        2.51391592648372        0.41295173194477
H           -2.45193143719415        1.20300317108603       -1.45428976581456
H           -1.83203416313980       -1.63872772763406        0.77787792673233
H           -2.28246947920550       -1.49645432727692       -0.92563374972057
H           -0.65646894114710       -2.04171781653366       -0.47320580231962
H            2.57265590546647       -1.94928986617664        0.50710408934065
H            2.55421794242090       -0.66892108611903       -0.53832119165100

 Bond Distances (Angstroems)
 ---------------------------
N1-N2=1.3212         N1-C6=1.3504         N1-H10=1.0098        N2-N1=1.3212         N2-C3=1.3221         C3-N2=1.3221         
C3-C4=1.4052         C3-H11=1.0716        C4-C3=1.4052         C4-C5=1.4863         C4-C6=1.3840         C5-C4=1.4863         
C5-H12=1.0899        C5-H13=1.0867        C5-H14=1.0885        C6-N1=1.3504         C6-C4=1.3840         C6-S7=1.7957         
S7-C6=1.7957         S7-O8=1.4637         S7-N9=1.7287         O8-S7=1.4637         N9-S7=1.7287         N9-H15=1.0105        
N9-H16=1.0123        H10-N1=1.0098        H11-C3=1.0716        H12-C5=1.0899        H13-C5=1.0867        H14-C5=1.0885        
H15-N9=1.0105        H16-N9=1.0123        
 C  H  Rav=1.0842 sigma=0.0073  Rmin=1.0716  Rmax=1.0899     4
 C  C  Rav=1.4252 sigma=0.0441  Rmin=1.3840  Rmax=1.4863     3
 N  H  Rav=1.0109 sigma=0.0010  Rmin=1.0098  Rmax=1.0123     3
 N  C  Rav=1.3362 sigma=0.0141  Rmin=1.3221  Rmax=1.3504     2
 N  N  Rav=1.3212 sigma=0.0000  Rmin=1.3212  Rmax=1.3212     1
 S  C  Rav=1.7957 sigma=0.0000  Rmin=1.7957  Rmax=1.7957     1
 S  N  Rav=1.7287 sigma=0.0000  Rmin=1.7287  Rmax=1.7287     1
 S  O  Rav=1.4637 sigma=0.0000  Rmin=1.4637  Rmax=1.4637     1

 selected bond angles (degree)
 --------------------
C6-N1-N2=112.25                H10-N1-N2=122.41               H10-N1-C6=125.33               C3-N2-N1=105.77                
C4-C3-N2=111.49                H11-C3-N2=120.38               H11-C3-C4=128.13               C5-C4-C3=128.98                
C6-C4-C3=103.61                C6-C4-C5=127.41                H12-C5-C4=110.51               H13-C5-C4=110.22               
H13-C5-H12=108.61              H14-C5-C4=110.10               H14-C5-H12=108.09              H14-C5-H13=109.25              
C4-C6-N1=106.87                S7-C6-N1=119.81                S7-C6-C4=133.30                O8-S7-C6=102.05                
N9-S7-C6= 93.52                N9-S7-O8=109.08                H15-N9-S7=111.52               H16-N9-S7=112.33               
H16-N9-H15=109.61              

 selected dihedral angles (degree)
 ---------------------------------
C3-N2-N1-C6=  0.38            C3-N2-N1-H10=179.63           C4-C3-N2-N1=  0.05            H11-C3-N2-N1=180.05           
C5-C4-C3-N2=180.16            C5-C4-C3-H11=  0.15           C6-C4-C3-N2=359.56            C6-C4-C3-H11=179.56           
H12-C5-C4-C3=249.59           H12-C5-C4-C6= 70.31           H13-C5-C4-C3=  9.65           H13-C5-C4-C6=190.37           
H14-C5-C4-C3=130.25           H14-C5-C4-C6=310.97           C4-C6-N1-N2=359.33            C4-C6-N1-H10=180.12           
S7-C6-N1-N2=180.94            S7-C6-N1-H10=  1.72           N1-C6-C4-C3=  0.64            N1-C6-C4-C5=180.05            
S7-C6-C4-C3=178.72            S7-C6-C4-C5=358.14            O8-S7-C6-N1=354.23            O8-S7-C6-C4=176.34            
N9-S7-C6-N1=243.87            N9-S7-C6-C4= 65.97            H15-N9-S7-C6=198.39           H15-N9-S7-O8= 94.35           
H16-N9-S7-C6= 74.88           H16-N9-S7-O8=330.84           
           -------------------------------------------------
          |                Final Singlepoint                |
           -------------------------------------------------

          ...................................................
          :                      SETUP                      :
          :.................................................:
          :  # basis functions                  49          :
          :  # atomic orbitals                  48          :
          :  # shells                           26          :
          :  # electrons                        50          :
          :  max. iterations                   250          :
          :  Hamiltonian                  GFN2-xTB          :
          :  restarted?                      false          :
          :  GBSA solvation                  false          :
          :  PC potential                    false          :
          :  electronic temp.          300.0000000     K    :
          :  accuracy                    1.0000000          :
          :  -> integral cutoff          0.2500000E+02      :
          :  -> integral neglect         0.1000000E-07      :
          :  -> SCF convergence          0.1000000E-05 Eh   :
          :  -> wf. convergence          0.1000000E-03 e    :
          :  Broyden damping             0.4000000          :
          :  net charge                          0          :
          :  unpaired electrons                  0          :
          ...................................................

 iter      E             dE          RMSdq      gap      omega  full diag
   1    -28.4838575 -0.284839E+02  0.777E-05    4.11       0.0  T
   2    -28.4838575 -0.119513E-10  0.507E-05    4.11     493.4  T
   3    -28.4838575 -0.273559E-11  0.348E-05    4.11     717.6  T

   *** convergence criteria satisfied after 3 iterations ***

         #    Occupation            Energy/Eh            Energy/eV
      -------------------------------------------------------------
         1        2.0000           -0.7682821             -20.9060
       ...           ...                  ...                  ...
        19        2.0000           -0.4679971             -12.7349
        20        2.0000           -0.4424727             -12.0403
        21        2.0000           -0.4194328             -11.4133
        22        2.0000           -0.4133304             -11.2473
        23        2.0000           -0.4027458             -10.9593
        24        2.0000           -0.3993289             -10.8663
        25        2.0000           -0.3922979             -10.6750 (HOMO)
        26                         -0.2411383              -6.5617 (LUMO)
        27                         -0.1975575              -5.3758
        28                         -0.1699843              -4.6255
        29                         -0.1634589              -4.4479
        30                         -0.0523414              -1.4243
       ...                                ...                  ...
        48                          0.9243157              25.1519
      -------------------------------------------------------------
                  HL-Gap            0.1511596 Eh            4.1133 eV
             Fermi-level           -0.3167181 Eh           -8.6183 eV

 SCC (total)                   0 d,  0 h,  0 min,  0.188 sec
 SCC setup                      ...        0 min,  0.000 sec (  0.049%)
 Dispersion                     ...        0 min,  0.000 sec (  0.030%)
 classical contributions        ...        0 min,  0.000 sec (  0.007%)
 integral evaluation            ...        0 min,  0.001 sec (  0.363%)
 iterations                     ...        0 min,  0.119 sec ( 62.981%)
 molecular gradient             ...        0 min,  0.069 sec ( 36.480%)
 printout                       ...        0 min,  0.000 sec (  0.080%)

         :::::::::::::::::::::::::::::::::::::::::::::::::::::
         ::                     SUMMARY                     ::
         :::::::::::::::::::::::::::::::::::::::::::::::::::::
         :: total energy             -28.174589581289 Eh    ::
         :: gradient norm              0.000840668435 Eh/a0 ::
         :: HOMO-LUMO gap              4.113263226255 eV    ::
         ::.................................................::
         :: SCC energy               -28.483794017492 Eh    ::
         :: -> isotropic ES            0.055534881643 Eh    ::
         :: -> anisotropic ES          0.002173139754 Eh    ::
         :: -> anisotropic XC          0.017451350583 Eh    ::
         :: -> dispersion             -0.014188898866 Eh    ::
         :: repulsion energy           0.309204436202 Eh    ::
         :: add. restraining           0.000000000000 Eh    ::
         :: total charge               0.000000000000 e     ::
         :::::::::::::::::::::::::::::::::::::::::::::::::::::

           -------------------------------------------------
          |                Property Printout                |
           -------------------------------------------------

    * Orbital Energies and Occupations

         #    Occupation            Energy/Eh            Energy/eV
      -------------------------------------------------------------
         1        2.0000           -0.7682821             -20.9060
       ...           ...                  ...                  ...
        13        2.0000           -0.5353175             -14.5667
        14        2.0000           -0.5094980             -13.8641
        15        2.0000           -0.4912165             -13.3667
        16        2.0000           -0.4894504             -13.3186
        17        2.0000           -0.4824637             -13.1285
        18        2.0000           -0.4778097             -13.0019
        19        2.0000           -0.4679971             -12.7349
        20        2.0000           -0.4424727             -12.0403
        21        2.0000           -0.4194328             -11.4133
        22        2.0000           -0.4133304             -11.2473
        23        2.0000           -0.4027458             -10.9593
        24        2.0000           -0.3993289             -10.8663
        25        2.0000           -0.3922979             -10.6750 (HOMO)
        26                         -0.2411383              -6.5617 (LUMO)
        27                         -0.1975575              -5.3758
        28                         -0.1699843              -4.6255
        29                         -0.1634589              -4.4479
        30                         -0.0523414              -1.4243
        31                          0.0144807               0.3940
        32                          0.0235248               0.6401
        33                          0.0661192               1.7992
        34                          0.0916787               2.4947
        35                          0.1122042               3.0532
        36                          0.1376831               3.7465
       ...                                ...                  ...
        48                          0.9243157              25.1519
      -------------------------------------------------------------
                  HL-Gap            0.1511596 Eh            4.1133 eV
             Fermi-level           -0.3167181 Eh           -8.6183 eV

     #   Z          covCN         q      C6AA      α(0)
     1   7 N        3.026     0.016    20.968     6.801
     2   7 N        1.996    -0.207    26.286     7.604
     3   6 C        3.141     0.017    27.395     8.565
     4   6 C        3.065    -0.020    28.442     8.745
     5   6 C        3.754    -0.113    22.721     6.797
     6   6 C        3.077    -0.027    28.589     8.766
     7  16 S        2.772     0.523   121.527    18.554
     8   8 O        0.860    -0.518    24.191     6.594
     9   7 N        2.632    -0.391    30.112     8.150
    10   1 H        0.860     0.186     1.182     1.703
    11   1 H        0.926     0.039     2.465     2.455
    12   1 H        0.925     0.046     2.365     2.405
    13   1 H        0.925     0.049     2.328     2.386
    14   1 H        0.925     0.054     2.266     2.354
    15   1 H        0.861     0.167     1.291     1.780
    16   1 H        0.861     0.178     1.225     1.733

 Mol. C6AA /au·bohr⁶  :       3735.767212
 Mol. C8AA /au·bohr⁸  :      98530.453779
 Mol. α(0) /au        :         95.392584


Wiberg/Mayer (AO) data.
largest (>0.10) Wiberg bond orders for each atom

 ---------------------------------------------------------------------------
     #   Z sym  total        # sym  WBO       # sym  WBO       # sym  WBO
 ---------------------------------------------------------------------------
     1   7 N    3.639 --     6 C    1.261     2 N    1.237    10 H    0.932
     2   7 N    2.984 --     3 C    1.496     1 N    1.237     6 C    0.162
     3   6 C    3.976 --     2 N    1.496     4 C    1.352    11 H    0.969
     4   6 C    3.980 --     6 C    1.441     3 C    1.352     5 C    1.032
     5   6 C    3.996 --     4 C    1.032    13 H    0.985    14 H    0.974
                            12 H    0.971
     6   6 C    3.934 --     4 C    1.441     1 N    1.261     7 S    0.942
                             2 N    0.162
     7  16 S    3.908 --     8 O    1.804     9 N    1.061     6 C    0.942
     8   8 O    1.990 --     7 S    1.804
     9   7 N    3.096 --     7 S    1.061    15 H    0.952    16 H    0.948
    10   1 H    0.966 --     1 N    0.932
    11   1 H    0.998 --     3 C    0.969
    12   1 H    0.998 --     5 C    0.971
    13   1 H    0.997 --     5 C    0.985
    14   1 H    0.997 --     5 C    0.974
    15   1 H    0.971 --     9 N    0.952
    16   1 H    0.968 --     9 N    0.948
 ---------------------------------------------------------------------------

Topologies differ in total number of bonds
Writing topology from bond orders to xtbtopo.mol

molecular dipole:
                 x           y           z       tot (Debye)
 q only:       -0.378      -1.114      -0.064
   full:        0.077      -1.257      -0.142       3.220
molecular quadrupole (traceless):
                xx          xy          yy          xz          yz          zz
 q only:       -2.539      -3.547       2.098      -4.840      -2.764       0.440
  q+dip:        2.171      -2.512      -0.706      -5.208      -1.837      -1.465
   full:        2.067      -3.051      -1.071      -5.983      -1.386      -0.996

           -------------------------------------------------
          |                Geometry Summary                 |
           -------------------------------------------------

      molecular mass/u    :      145.1828308
   center of mass at/Å    :        0.3697779       0.3505981       0.3620868
  moments of inertia/u·Å² :        0.2159775E+03   0.4187554E+03   0.5751090E+03
rotational constants/cm⁻¹ :        0.7805274E-01   0.4025652E-01   0.2931206E-01

 * 16 selected distances

     #   Z          #   Z                                           value/Å
     1   7 N        2   7 N                                       1.3212482
     2   7 N        3   6 C                                       1.3220873
     3   6 C        4   6 C                                       1.4052177
     4   6 C        5   6 C                                       1.4863224
     1   7 N        6   6 C                                       1.3503829
     4   6 C        6   6 C                                       1.3839826
     6   6 C        7  16 S                                       1.7957351 (max)
     7  16 S        8   8 O                                       1.4636792
     7  16 S        9   7 N                                       1.7287460
     1   7 N       10   1 H                                       1.0098180 (min)
     3   6 C       11   1 H                                       1.0716450
     5   6 C       12   1 H                                       1.0899457
     5   6 C       13   1 H                                       1.0867479
     5   6 C       14   1 H                                       1.0884502
     9   7 N       15   1 H                                       1.0105141
     9   7 N       16   1 H                                       1.0122935

 * 8 distinct bonds (by element types)

   Z      Z             #   av. dist./Å        max./Å        min./Å
   1 H    6 C           4     1.0841972     1.0899457     1.0716450
   6 C    6 C           3     1.4251742     1.4863224     1.3839826
   1 H    7 N           3     1.0108752     1.0122935     1.0098180
   6 C    7 N           2     1.3362351     1.3503829     1.3220873
   7 N    7 N           1     1.3212482     1.3212482     1.3212482
   6 C   16 S           1     1.7957351     1.7957351     1.7957351
   7 N   16 S           1     1.7287460     1.7287460     1.7287460
   8 O   16 S           1     1.4636792     1.4636792     1.4636792


optimized geometry written to: xtbopt.xyz


           -------------------------------------------------
          | TOTAL ENERGY              -28.174589581289 Eh   |
          | GRADIENT NORM               0.000840668435 Eh/α |
          | HOMO-LUMO GAP               4.113263226255 eV   |
           -------------------------------------------------

------------------------------------------------------------------------
 * finished run on 2026/08/20 at 09:39:07.140     
------------------------------------------------------------------------
 total:
 * wall-time:     0 d,  0 h,  0 min, 50.781 sec
 *  cpu-time:     0 d,  0 h,  4 min, 10.113 sec
 * ratio c/w:     4.925 speedup
 SCF:
 * wall-time:     0 d,  0 h,  0 min,  1.511 sec
 *  cpu-time:     0 d,  0 h,  0 min,  8.416 sec
 * ratio c/w:     5.570 speedup
 ANC optimizer:
 * wall-time:     0 d,  0 h,  0 min, 49.139 sec
 *  cpu-time:     0 d,  0 h,  4 min,  1.255 sec
 * ratio c/w:     4.910 speedup

