16

N      0.393546    1.603875   -0.205284
N     -0.674290    2.119039   -0.795122
C     -1.621457    1.159977   -0.851585
C     -1.128364   -0.000097   -0.285771
C     -1.862074   -1.282992   -0.068233
C      0.146674    0.324133    0.122457
S      1.291256   -0.739148    0.969306
O      1.715653    0.074427    2.184949
N      2.705926   -0.752271   -0.063557
H      1.275098    2.131751   -0.021226
H     -2.609466    1.302071   -1.268930
H     -2.207092   -1.337947    0.985113
H     -2.741569   -1.341258   -0.743467
H     -1.192147   -2.142368   -0.280135
H      3.424424   -1.340501    0.414623
H      3.083881    0.221309   -0.093139
