      -----------------------------------------------------------      
     |                   =====================                   |     
     |                           x T B                           |     
     |                   =====================                   |     
     |                         S. Grimme                         |     
     |          Mulliken Center for Theoretical Chemistry        |     
     |                    University of Bonn                     |     
      -----------------------------------------------------------      

   * xtb version 6.7.1 (edcfbbe) compiled by 'conda@3ef47c1a292c' on 2024-11-25

   xtb is free software: you can redistribute it and/or modify it under
   the terms of the GNU Lesser General Public License as published by
   the Free Software Foundation, either version 3 of the License, or
   (at your option) any later version.
   
   xtb is distributed in the hope that it will be useful,
   but WITHOUT ANY WARRANTY; without even the implied warranty of
   MERCHANTABILITY or FITNESS FOR A PARTICULAR PURPOSE.  See the
   GNU Lesser General Public License for more details.
   
   Cite this work as:
   * C. Bannwarth, E. Caldeweyher, S. Ehlert, A. Hansen, P. Pracht,
     J. Seibert, S. Spicher, S. Grimme, WIREs Comput. Mol. Sci., 2020, 11,
     e01493. DOI: 10.1002/wcms.1493
   
   for GFN2-xTB:
   * C. Bannwarth, S. Ehlert and S. Grimme., J. Chem. Theory Comput., 2019,
     15, 1652-1671. DOI: 10.1021/acs.jctc.8b01176
   for GFN1-xTB:
   * S. Grimme, C. Bannwarth, P. Shushkov, J. Chem. Theory Comput., 2017,
     13, 1989-2009. DOI: 10.1021/acs.jctc.7b00118
   for GFN0-xTB:
   * P. Pracht, E. Caldeweyher, S. Ehlert, S. Grimme, ChemRxiv, 2019, preprint.
     DOI: 10.26434/chemrxiv.8326202.v1
   for GFN-FF:
   * S. Spicher and S. Grimme, Angew. Chem. Int. Ed., 2020, 59, 15665-15673.
     DOI: 10.1002/anie.202004239
   
   for ALPB and GBSA implicit solvation:
   * S. Ehlert, M. Stahn, S. Spicher, S. Grimme, J. Chem. Theory Comput.,
     2021, 17, 4250-4261. DOI: 10.1021/acs.jctc.1c00471
   
   for ddCOSMO and CPCM-X implicit solvation:
   * M. Stahn, S. Ehlert, S. Grimme, J. Phys. Chem. A,
     2023, XX, XXXX-XXXX. DOI: 10.1021/acs.jpca.3c04382
   
   for DFT-D4:
   * E. Caldeweyher, C. Bannwarth and S. Grimme, J. Chem. Phys., 2017,
     147, 034112. DOI: 10.1063/1.4993215
   * E. Caldeweyher, S. Ehlert, A. Hansen, H. Neugebauer, S. Spicher,
     C. Bannwarth and S. Grimme, J. Chem. Phys., 2019, 150, 154122.
     DOI: 10.1063/1.5090222
   * E. Caldeweyher, J.-M. Mewes, S. Ehlert and S. Grimme, Phys. Chem. Chem. Phys.
     2020, 22, 8499-8512. DOI: 10.1039/D0CP00502A
   
   for sTDA-xTB:
   * S. Grimme and C. Bannwarth, J. Chem. Phys., 2016, 145, 054103.
     DOI: 10.1063/1.4959605
   
   in the mass-spec context:
   * V. Asgeirsson, C. Bauer and S. Grimme, Chem. Sci., 2017, 8, 4879.
     DOI: 10.1039/c7sc00601b
   * J. Koopman and S. Grimme, ACS Omega 2019, 4, 12, 15120-15133.
     DOI: 10.1021/acsomega.9b02011
   
   for metadynamics refer to:
   * S. Grimme, J. Chem. Theory Comput., 2019, 155, 2847-2862
     DOI: 10.1021/acs.jctc.9b00143
   
   for SPH calculations refer to:
   * S. Spicher and S. Grimme, J. Chem. Theory Comput., 2021, 17, 1701-1714
     DOI: 10.1021/acs.jctc.0c01306
   
   for ONIOM refer to:
   * C. Plett, A. Katbashev, S. Ehlert, S. Grimme, M. Bursch,
     Phys. Chem. Chem. Phys., 2023, 25, 17860-17868. DOI: 10.1039/D3CP02178E
   
   for DIPRO refer to:
   * J. Kohn, N. Gildemeister, S. Grimme, D. Fazzi, A. Hansen,
     J. Chem. Phys., 2023, just accepted.
   
   for PTB refer to:
   * S. Grimme, M. Mueller, A. Hansen, J. Chem. Phys., 2023, 158, 124111.
     DOI: 10.1063/5.0137838
   
   with help from (in alphabetical order)
   P. Atkinson, C. Bannwarth, F. Bohle, G. Brandenburg, E. Caldeweyher
   M. Checinski, S. Dohm, S. Ehlert, S. Ehrlich, I. Gerasimov, C. Hölzer
   A. Katbashev, J. Kohn, J. Koopman, C. Lavigne, S. Lehtola, F. März, M. Müller,
   F. Musil, H. Neugebauer, J. Pisarek, C. Plett, P. Pracht, F. Pultar,
   J. Seibert, P. Shushkov, S. Spicher, M. Stahn, M. Steiner, T. Strunk,
   J. Stückrath, T. Rose, and J. Unsleber
   
 * started run on 2026/08/20 at 09:38:16.360     
   ID    Z sym.   atoms
    1    7 N      1, 2, 10
    2    6 C      3-7
    3   16 S      8
    4    8 O      9
    5    1 H      11-19

           -------------------------------------------------
          |                Calculation Setup                |
           -------------------------------------------------

          program call               : /h/399/yunhengzou/micromamba/envs/el-agente/bin/xtb pathway_B_product_raw.xyz --opt --gfn 2 -P 4 --chrg 0 --uhf 0
          coordinate file            : pathway_B_product_raw.xyz
          omp threads                :                     4


           -------------------------------------------------
          |                 G F N 2 - x T B                 |
           -------------------------------------------------

        Reference                      10.1021/acs.jctc.8b01176
      * Hamiltonian:
        H0-scaling (s, p, d)           1.850000    2.230000    2.230000
        zeta-weighting                 0.500000
      * Dispersion:
        s8                             2.700000
        a1                             0.520000
        a2                             5.000000
        s9                             5.000000
      * Repulsion:
        kExp                           1.500000    1.000000
        rExp                           1.000000
      * Coulomb:
        alpha                          2.000000
        third order                    shell-resolved
        anisotropic                    true
        a3                             3.000000
        a5                             4.000000
        cn-shift                       1.200000
        cn-exp                         4.000000
        max-rad                        5.000000


          ...................................................
          :                      SETUP                      :
          :.................................................:
          :  # basis functions                  55          :
          :  # atomic orbitals                  54          :
          :  # shells                           30          :
          :  # electrons                        56          :
          :  max. iterations                   250          :
          :  Hamiltonian                  GFN2-xTB          :
          :  restarted?                      false          :
          :  GBSA solvation                  false          :
          :  PC potential                    false          :
          :  electronic temp.          300.0000000     K    :
          :  accuracy                    1.0000000          :
          :  -> integral cutoff          0.2500000E+02      :
          :  -> integral neglect         0.1000000E-07      :
          :  -> SCF convergence          0.1000000E-05 Eh   :
          :  -> wf. convergence          0.1000000E-03 e    :
          :  Broyden damping             0.4000000          :
          :  net charge                          0          :
          :  unpaired electrons                  0          :
          ...................................................

 iter      E             dE          RMSdq      gap      omega  full diag
   1    -31.5450227 -0.315450E+02  0.440E+00    4.43       0.0  T
   2    -31.6312958 -0.862731E-01  0.298E+00    3.57       1.0  T
   3    -31.6436595 -0.123636E-01  0.161E+00    3.66       1.0  T
   4    -31.6442049 -0.545462E-03  0.623E-01    3.54       1.0  T
   5    -31.6475604 -0.335550E-02  0.236E-01    3.58       1.0  T
   6    -31.6475429  0.174977E-04  0.883E-02    3.61       1.0  T
   7    -31.6476198 -0.768179E-04  0.416E-02    3.61       1.0  T
   8    -31.6476235 -0.370935E-05  0.226E-02    3.61       1.0  T
   9    -31.6476239 -0.461637E-06  0.641E-03    3.61       3.6  T
  10    -31.6476242 -0.264380E-06  0.329E-03    3.61       7.0  T
  11    -31.6476242 -0.267441E-07  0.140E-03    3.61      16.4  T
  12    -31.6476242 -0.352748E-08  0.368E-04    3.61      62.3  T
  13    -31.6476242 -0.317300E-09  0.118E-04    3.61     195.0  T

   *** convergence criteria satisfied after 13 iterations ***

         #    Occupation            Energy/Eh            Energy/eV
      -------------------------------------------------------------
         1        2.0000           -0.7446108             -20.2619
       ...           ...                  ...                  ...
        22        2.0000           -0.4513312             -12.2813
        23        2.0000           -0.4275302             -11.6337
        24        2.0000           -0.4107127             -11.1761
        25        2.0000           -0.4074140             -11.0863
        26        2.0000           -0.4024596             -10.9515
        27        2.0000           -0.3992092             -10.8630
        28        2.0000           -0.3729550             -10.1486 (HOMO)
        29                         -0.2403876              -6.5413 (LUMO)
        30                         -0.2006107              -5.4589
        31                         -0.1647329              -4.4826
        32                         -0.1370033              -3.7280
        33                         -0.1021468              -2.7796
       ...                                ...                  ...
        54                          0.7792205              21.2037
      -------------------------------------------------------------
                  HL-Gap            0.1325674 Eh            3.6073 eV
             Fermi-level           -0.3066713 Eh           -8.3450 eV

 SCC (total)                   0 d,  0 h,  0 min,  3.151 sec
 SCC setup                      ...        0 min,  0.006 sec (  0.190%)
 Dispersion                     ...        0 min,  0.000 sec (  0.004%)
 classical contributions        ...        0 min,  0.000 sec (  0.001%)
 integral evaluation            ...        0 min,  0.001 sec (  0.030%)
 iterations                     ...        0 min,  2.962 sec ( 94.008%)
 molecular gradient             ...        0 min,  0.182 sec (  5.761%)
 printout                       ...        0 min,  0.000 sec (  0.006%)

         :::::::::::::::::::::::::::::::::::::::::::::::::::::
         ::                     SUMMARY                     ::
         :::::::::::::::::::::::::::::::::::::::::::::::::::::
         :: total energy             -31.328973784269 Eh    ::
         :: gradient norm              0.111495884250 Eh/a0 ::
         :: HOMO-LUMO gap              3.607342857356 eV    ::
         ::.................................................::
         :: SCC energy               -31.647560334795 Eh    ::
         :: -> isotropic ES            0.060041960392 Eh    ::
         :: -> anisotropic ES          0.005791307924 Eh    ::
         :: -> anisotropic XC          0.020479493618 Eh    ::
         :: -> dispersion             -0.016833378788 Eh    ::
         :: repulsion energy           0.318586550525 Eh    ::
         :: add. restraining           0.000000000000 Eh    ::
         :: total charge               0.000000000000 e     ::
         :::::::::::::::::::::::::::::::::::::::::::::::::::::

      ----------------------------------------------------------- 
     |                   =====================                   |
     |                        A N C O P T                        |
     |                   =====================                   |
     |               Approximate Normal Coordinate               |
     |                Rational Function Optimizer                |
      ----------------------------------------------------------- 
      ----------------------------------------------------------- 
     |                   =====================                   |
     |                        A N C O P T                        |
     |                   =====================                   |
     |               Approximate Normal Coordinate               |
     |                Rational Function Optimizer                |
      ----------------------------------------------------------- 

          ...................................................
          :                      SETUP                      :
          :.................................................:
          :   optimization level            normal          :
          :   max. optcycles                   200          :
          :   ANC micro-cycles                  20          :
          :   degrees of freedom                51          :
          :.................................................:
          :   RF solver                   davidson          :
          :   write xtbopt.log                true          :
          :   linear?                        false          :
          :   energy convergence         0.5000000E-05 Eh   :
          :   grad. convergence          0.1000000E-02 Eh/α :
          :   maxmium RF displ.          1.0000000          :
          :   Hlow (freq-cutoff)         0.1000000E-01      :
          :   Hmax (freq-cutoff)         5.0000000          :
          :   S6 in model hess.         20.0000000          :
          ...................................................

generating ANC from exact Hessian ...
Using Lindh-Hessian (1995)
 Shifting diagonal of input Hessian by    7.7943646253916480E-003
 Lowest  eigenvalues of input Hessian
    0.000000    0.000000    0.000000    0.000000    0.000000    0.000000
    0.010000    0.011385    0.012559    0.015973    0.016368    0.018462
    0.021574    0.023907    0.028225    0.041195    0.048277    0.050157
 Highest eigenvalues
    1.550207    1.813468    1.816006    2.048230    2.069114    2.143943


........................................................................
.............................. CYCLE    1 ..............................
........................................................................

 iter      E             dE          RMSdq      gap      omega  full diag
   1    -31.6476242 -0.316476E+02  0.460E-05    3.61       0.0  T
   2    -31.6476242 -0.220979E-11  0.297E-05    3.61     771.8  T
   3    -31.6476242 -0.163425E-12  0.136E-05    3.61    1680.8  T
     SCC iter.                  ...        0 min,  0.415 sec
     gradient                   ...        0 min,  0.033 sec
 * total energy  :   -31.3289738 Eh     change       -0.2452438E-10 Eh
   gradient norm :     0.1114961 Eh/α   predicted     0.0000000E+00 (-100.00%)
   displ. norm   :     0.2810112 α      lambda       -0.1568972E-01
   maximum displ.:     0.1223527 α      in ANC's #13, #6, #8, ...

........................................................................
.............................. CYCLE    2 ..............................
........................................................................

 iter      E             dE          RMSdq      gap      omega  full diag
   1    -31.6774194 -0.316774E+02  0.397E-01    3.71       0.0  T
   2    -31.6777689 -0.349538E-03  0.234E-01    3.80       1.0  T
   3    -31.6777856 -0.166718E-04  0.108E-01    3.80       1.0  T
   4    -31.6777878 -0.216952E-05  0.279E-02    3.81       1.0  T
   5    -31.6777881 -0.361503E-06  0.164E-02    3.81       1.4  T
   6    -31.6777903 -0.220552E-05  0.426E-03    3.81       5.4  T
   7    -31.6777903 -0.129145E-07  0.148E-03    3.81      15.5  T
   8    -31.6777903 -0.189851E-08  0.767E-04    3.81      29.9  T
   9    -31.6777903 -0.303861E-08  0.264E-04    3.81      86.7  T
     SCC iter.                  ...        0 min,  0.995 sec
     gradient                   ...        0 min,  0.219 sec
 * total energy  :   -31.3395876 Eh     change       -0.1061379E-01 Eh
   gradient norm :     0.0617918 Eh/α   predicted    -0.8474368E-02 ( -20.16%)
   displ. norm   :     0.2351273 α      lambda       -0.5426975E-02
   maximum displ.:     0.0922208 α      in ANC's #6, #8, #7, ...

........................................................................
.............................. CYCLE    3 ..............................
........................................................................

 iter      E             dE          RMSdq      gap      omega  full diag
   1    -31.6976270 -0.316976E+02  0.264E-01    3.82       0.0  T
   2    -31.6979414 -0.314460E-03  0.162E-01    3.91       1.0  T
   3    -31.6979538 -0.123869E-04  0.908E-02    3.92       1.0  T
   4    -31.6979476  0.616666E-05  0.271E-02    3.92       1.0  T
   5    -31.6979562 -0.852655E-05  0.880E-03    3.92       2.6  T
   6    -31.6979563 -0.931190E-07  0.240E-03    3.92       9.5  T
   7    -31.6979563 -0.556729E-08  0.970E-04    3.92      23.6  T
   8    -31.6979563 -0.413399E-08  0.511E-04    3.92      44.9  T
     SCC iter.                  ...        0 min,  1.085 sec
     gradient                   ...        0 min,  0.140 sec
 * total energy  :   -31.3426802 Eh     change       -0.3092663E-02 Eh
   gradient norm :     0.0165196 Eh/α   predicted    -0.2863531E-02 (  -7.41%)
   displ. norm   :     0.1417793 α      lambda       -0.6392030E-03
   maximum displ.:     0.0768366 α      in ANC's #1, #7, #3, ...

........................................................................
.............................. CYCLE    4 ..............................
........................................................................

 iter      E             dE          RMSdq      gap      omega  full diag
   1    -31.6978983 -0.316979E+02  0.796E-02    3.92       0.0  T
   2    -31.6979144 -0.160877E-04  0.476E-02    3.94       1.0  T
   3    -31.6979149 -0.550279E-06  0.238E-02    3.95       1.0  T
   4    -31.6979149  0.389677E-08  0.486E-03    3.95       4.7  T
   5    -31.6979150 -0.123386E-06  0.283E-03    3.95       8.1  T
   6    -31.6979151 -0.711061E-07  0.743E-04    3.95      30.9  T
   7    -31.6979151 -0.493880E-09  0.346E-04    3.95      66.3  T
     SCC iter.                  ...        0 min,  0.950 sec
     gradient                   ...        0 min,  0.221 sec
 * total energy  :   -31.3431255 Eh     change       -0.4452916E-03 Eh
   gradient norm :     0.0078251 Eh/α   predicted    -0.3260303E-03 ( -26.78%)
   displ. norm   :     0.1709891 α      lambda       -0.3292801E-03
   maximum displ.:     0.1196283 α      in ANC's #1, #3, #7, ...

........................................................................
.............................. CYCLE    5 ..............................
........................................................................

 iter      E             dE          RMSdq      gap      omega  full diag
   1    -31.6966852 -0.316967E+02  0.791E-02    3.94       0.0  T
   2    -31.6966897 -0.451580E-05  0.415E-02    3.95       1.0  T
   3    -31.6966899 -0.130796E-06  0.134E-02    3.96       1.7  T
   4    -31.6966902 -0.369503E-06  0.595E-03    3.96       3.9  T
   5    -31.6966904 -0.168241E-06  0.237E-03    3.96       9.7  T
   6    -31.6966904 -0.144545E-07  0.840E-04    3.96      27.3  T
   7    -31.6966904 -0.427801E-08  0.450E-04    3.96      51.0  T
     SCC iter.                  ...        0 min,  0.806 sec
     gradient                   ...        0 min,  0.228 sec
 * total energy  :   -31.3433492 Eh     change       -0.2236352E-03 Eh
   gradient norm :     0.0067958 Eh/α   predicted    -0.1694570E-03 ( -24.23%)
   displ. norm   :     0.1501458 α      lambda       -0.1561711E-03
   maximum displ.:     0.1227215 α      in ANC's #1, #3, #7, ...

........................................................................
.............................. CYCLE    6 ..............................
........................................................................

 iter      E             dE          RMSdq      gap      omega  full diag
   1    -31.6962627 -0.316963E+02  0.703E-02    3.95       0.0  T
   2    -31.6962676 -0.495597E-05  0.342E-02    3.95       1.0  T
   3    -31.6962680 -0.322649E-06  0.129E-02    3.95       1.8  T
   4    -31.6962681 -0.115410E-06  0.572E-03    3.95       4.0  T
   5    -31.6962682 -0.152973E-06  0.264E-03    3.95       8.7  T
   6    -31.6962683 -0.138242E-07  0.738E-04    3.95      31.1  T
   7    -31.6962683 -0.321629E-08  0.378E-04    3.95      60.6  T
     SCC iter.                  ...        0 min,  0.946 sec
     gradient                   ...        0 min,  0.191 sec
 * total energy  :   -31.3434711 Eh     change       -0.1219253E-03 Eh
   gradient norm :     0.0047369 Eh/α   predicted    -0.7986428E-04 ( -34.50%)
   displ. norm   :     0.1472077 α      lambda       -0.1275585E-03
   maximum displ.:     0.1247562 α      in ANC's #1, #4, #3, ...

........................................................................
.............................. CYCLE    7 ..............................
........................................................................

 iter      E             dE          RMSdq      gap      omega  full diag
   1    -31.6965207 -0.316965E+02  0.691E-02    3.95       0.0  T
   2    -31.6965260 -0.534143E-05  0.328E-02    3.95       1.0  T
   3    -31.6965264 -0.337987E-06  0.131E-02    3.95       1.8  T
   4    -31.6965264 -0.308298E-07  0.565E-03    3.95       4.1  T
   5    -31.6965266 -0.160147E-06  0.261E-03    3.95       8.8  T
   6    -31.6965266 -0.172549E-07  0.634E-04    3.95      36.2  T
   7    -31.6965266 -0.170878E-08  0.338E-04    3.95      67.8  T
     SCC iter.                  ...        0 min,  0.780 sec
     gradient                   ...        0 min,  0.184 sec
 * total energy  :   -31.3435754 Eh     change       -0.1043242E-03 Eh
   gradient norm :     0.0031226 Eh/α   predicted    -0.6516287E-04 ( -37.54%)
   displ. norm   :     0.1592981 α      lambda       -0.1139682E-03
   maximum displ.:     0.1299130 α      in ANC's #1, #4, #3, ...

........................................................................
.............................. CYCLE    8 ..............................
........................................................................

 iter      E             dE          RMSdq      gap      omega  full diag
   1    -31.6969547 -0.316970E+02  0.668E-02    3.94       0.0  T
   2    -31.6969582 -0.349271E-05  0.317E-02    3.94       1.0  T
   3    -31.6969585 -0.271803E-06  0.116E-02    3.94       2.0  T
   4    -31.6969585 -0.172401E-07  0.512E-03    3.94       4.5  T
   5    -31.6969586 -0.126988E-06  0.227E-03    3.94      10.1  T
   6    -31.6969587 -0.234447E-07  0.545E-04    3.94      42.1  T
   7    -31.6969587 -0.208207E-09  0.244E-04    3.94      94.1  T
     SCC iter.                  ...        0 min,  1.188 sec
     gradient                   ...        0 min,  0.207 sec
 * total energy  :   -31.3436735 Eh     change       -0.9806643E-04 Eh
   gradient norm :     0.0048166 Eh/α   predicted    -0.5843154E-04 ( -40.42%)
   displ. norm   :     0.2262430 α      lambda       -0.1441011E-03
   maximum displ.:     0.1726456 α      in ANC's #1, #4, #3, ...

........................................................................
.............................. CYCLE    9 ..............................
........................................................................

 iter      E             dE          RMSdq      gap      omega  full diag
   1    -31.6970045 -0.316970E+02  0.844E-02    3.94       0.0  T
   2    -31.6970080 -0.348406E-05  0.406E-02    3.94       1.0  T
   3    -31.6970085 -0.446055E-06  0.124E-02    3.94       1.9  T
   4    -31.6970085 -0.843094E-10  0.569E-03    3.94       4.0  T
   5    -31.6970086 -0.136511E-06  0.233E-03    3.94       9.9  T
   6    -31.6970087 -0.436690E-07  0.657E-04    3.94      34.9  T
   7    -31.6970087 -0.341977E-09  0.239E-04    3.94      95.9  T
     SCC iter.                  ...        0 min,  1.048 sec
     gradient                   ...        0 min,  0.217 sec
 * total energy  :   -31.3437999 Eh     change       -0.1264661E-03 Eh
   gradient norm :     0.0067181 Eh/α   predicted    -0.7574074E-04 ( -40.11%)
   displ. norm   :     0.4232937 α      lambda       -0.2427637E-03
   maximum displ.:     0.3129813 α      in ANC's #1, #4, #3, ...

........................................................................
.............................. CYCLE   10 ..............................
........................................................................

 iter      E             dE          RMSdq      gap      omega  full diag
   1    -31.6953533 -0.316954E+02  0.147E-01    3.93       0.0  T
   2    -31.6953617 -0.844637E-05  0.717E-02    3.93       1.0  T
   3    -31.6953631 -0.138280E-05  0.193E-02    3.93       1.2  T
   4    -31.6953629  0.182644E-06  0.924E-03    3.93       2.5  T
   5    -31.6953635 -0.597007E-06  0.300E-03    3.93       7.6  T
   6    -31.6953636 -0.691548E-07  0.109E-03    3.93      21.1  T
   7    -31.6953636 -0.299476E-09  0.496E-04    3.93      46.3  T
   8    -31.6953636 -0.140848E-08  0.230E-04    3.93      99.8  T
     SCC iter.                  ...        0 min,  1.303 sec
     gradient                   ...        0 min,  0.112 sec
 * total energy  :   -31.3439758 Eh     change       -0.1758810E-03 Eh
   gradient norm :     0.0097257 Eh/α   predicted    -0.1431316E-03 ( -18.62%)
   displ. norm   :     0.3172339 α      lambda       -0.1864196E-03
   maximum displ.:     0.2391011 α      in ANC's #1, #4, #5, ...

........................................................................
.............................. CYCLE   11 ..............................
........................................................................

 iter      E             dE          RMSdq      gap      omega  full diag
   1    -31.6954185 -0.316954E+02  0.104E-01    3.93       0.0  T
   2    -31.6954229 -0.431644E-05  0.521E-02    3.93       1.0  T
   3    -31.6954236 -0.783971E-06  0.129E-02    3.93       1.8  T
   4    -31.6954237 -0.443633E-07  0.671E-03    3.93       3.4  T
   5    -31.6954239 -0.203294E-06  0.172E-03    3.93      13.3  T
   6    -31.6954239 -0.159219E-07  0.777E-04    3.93      29.5  T
   7    -31.6954239 -0.233488E-09  0.384E-04    3.93      59.8  T
     SCC iter.                  ...        0 min,  1.192 sec
     gradient                   ...        0 min,  0.232 sec
 * total energy  :   -31.3441119 Eh     change       -0.1361151E-03 Eh
   gradient norm :     0.0081886 Eh/α   predicted    -0.1025923E-03 ( -24.63%)
   displ. norm   :     0.2265168 α      lambda       -0.2165316E-03
   maximum displ.:     0.1623687 α      in ANC's #1, #4, #2, ...

........................................................................
.............................. CYCLE   12 ..............................
........................................................................

 iter      E             dE          RMSdq      gap      omega  full diag
   1    -31.6986944 -0.316987E+02  0.847E-02    3.93       0.0  T
   2    -31.6987003 -0.588043E-05  0.433E-02    3.94       1.0  T
   3    -31.6987001  0.190708E-06  0.140E-02    3.94       1.6  T
   4    -31.6987013 -0.113964E-05  0.725E-03    3.94       3.2  T
   5    -31.6987014 -0.175779E-06  0.305E-03    3.94       7.5  T
   6    -31.6987015 -0.356011E-07  0.662E-04    3.94      34.7  T
   7    -31.6987015 -0.836831E-09  0.386E-04    3.94      59.4  T
     SCC iter.                  ...        0 min,  1.087 sec
     gradient                   ...        0 min,  0.226 sec
 * total energy  :   -31.3442440 Eh     change       -0.1320777E-03 Eh
   gradient norm :     0.0036267 Eh/α   predicted    -0.1138220E-03 ( -13.82%)
   displ. norm   :     0.5342720 α      lambda       -0.2371071E-03
   maximum displ.:     0.3702877 α      in ANC's #1, #4, #2, ...

........................................................................
.............................. CYCLE   13 ..............................
........................................................................

 iter      E             dE          RMSdq      gap      omega  full diag
   1    -31.6932585 -0.316933E+02  0.208E-01    3.94       0.0  T
   2    -31.6932763 -0.178516E-04  0.963E-02    3.93       1.0  T
   3    -31.6932793 -0.294631E-05  0.254E-02    3.93       1.0  T
   4    -31.6932791  0.189378E-06  0.108E-02    3.93       2.1  T
   5    -31.6932796 -0.496201E-06  0.419E-03    3.93       5.5  T
   6    -31.6932797 -0.168715E-06  0.126E-03    3.93      18.3  T
   7    -31.6932797 -0.874813E-09  0.470E-04    3.93      48.8  T
   8    -31.6932797 -0.438451E-09  0.262E-04    3.93      87.5  T
     SCC iter.                  ...        0 min,  1.449 sec
     gradient                   ...        0 min,  0.176 sec
 * total energy  :   -31.3443029 Eh     change       -0.5888675E-04 Eh
   gradient norm :     0.0102232 Eh/α   predicted    -0.1523952E-03 ( 158.79%)
   displ. norm   :     0.1346667 α      lambda       -0.2287297E-03
   maximum displ.:     0.0924795 α      in ANC's #1, #4, #6, ...

........................................................................
.............................. CYCLE   14 ..............................
........................................................................

 iter      E             dE          RMSdq      gap      omega  full diag
   1    -31.6975394 -0.316975E+02  0.496E-02    3.93       0.0  T
   2    -31.6975430 -0.356478E-05  0.296E-02    3.93       1.0  T
   3    -31.6975429  0.100437E-06  0.935E-03    3.93       2.5  T
   4    -31.6975432 -0.348238E-06  0.379E-03    3.93       6.1  T
   5    -31.6975433 -0.870440E-07  0.202E-03    3.93      11.3  T
   6    -31.6975434 -0.213741E-07  0.469E-04    3.93      48.9  T
   7    -31.6975434 -0.314369E-09  0.180E-04    3.93     127.2  T
     SCC iter.                  ...        0 min,  0.839 sec
     gradient                   ...        0 min,  0.228 sec
 * total energy  :   -31.3444185 Eh     change       -0.1155905E-03 Eh
   gradient norm :     0.0026557 Eh/α   predicted    -0.1164411E-03 (   0.74%)
   displ. norm   :     0.1969246 α      lambda       -0.8174045E-04
   maximum displ.:     0.1285581 α      in ANC's #1, #4, #2, ...

........................................................................
.............................. CYCLE   15 ..............................
........................................................................

 iter      E             dE          RMSdq      gap      omega  full diag
   1    -31.6974069 -0.316974E+02  0.891E-02    3.93       0.0  T
   2    -31.6974109 -0.393567E-05  0.387E-02    3.93       1.0  T
   3    -31.6974113 -0.451599E-06  0.117E-02    3.93       2.0  T
   4    -31.6974113 -0.305962E-07  0.539E-03    3.93       4.3  T
   5    -31.6974114 -0.794690E-07  0.261E-03    3.93       8.8  T
   6    -31.6974115 -0.434189E-07  0.586E-04    3.93      39.1  T
   7    -31.6974115 -0.176676E-09  0.303E-04    3.93      75.8  T
     SCC iter.                  ...        0 min,  0.801 sec
     gradient                   ...        0 min,  0.184 sec
 * total energy  :   -31.3444877 Eh     change       -0.6922882E-04 Eh
   gradient norm :     0.0023783 Eh/α   predicted    -0.4245582E-04 ( -38.67%)
   displ. norm   :     0.4727107 α      lambda       -0.1543051E-03
   maximum displ.:     0.2985023 α      in ANC's #1, #4, #2, ...

........................................................................
.............................. CYCLE   16 ..............................
........................................................................

 iter      E             dE          RMSdq      gap      omega  full diag
   1    -31.6945034 -0.316945E+02  0.196E-01    3.91       0.0  T
   2    -31.6945189 -0.154349E-04  0.870E-02    3.91       1.0  T
   3    -31.6945210 -0.216508E-05  0.254E-02    3.91       1.0  T
   4    -31.6945210 -0.685393E-08  0.113E-02    3.91       2.0  T
   5    -31.6945214 -0.404161E-06  0.498E-03    3.91       4.6  T
   6    -31.6945216 -0.153357E-06  0.142E-03    3.91      16.1  T
   7    -31.6945216  0.339128E-09  0.686E-04    3.91      33.4  T
   8    -31.6945216 -0.288859E-08  0.296E-04    3.91      77.5  T
     SCC iter.                  ...        0 min,  1.368 sec
     gradient                   ...        0 min,  0.181 sec
 * total energy  :   -31.3445613 Eh     change       -0.7360706E-04 Eh
   gradient norm :     0.0066150 Eh/α   predicted    -0.9439234E-04 (  28.24%)
   displ. norm   :     0.0356368 α      lambda       -0.7581765E-04
   maximum displ.:     0.0208962 α      in ANC's #2, #6, #8, ...

........................................................................
.............................. CYCLE   17 ..............................
........................................................................

 iter      E             dE          RMSdq      gap      omega  full diag
   1    -31.6968459 -0.316968E+02  0.235E-02    3.91       0.0  T
   2    -31.6968468 -0.884955E-06  0.136E-02    3.92       1.7  T
   3    -31.6968468  0.471716E-07  0.574E-03    3.92       4.0  T
   4    -31.6968469 -0.859931E-07  0.214E-03    3.92      10.7  T
   5    -31.6968469 -0.640205E-07  0.701E-04    3.92      32.7  T
   6    -31.6968469 -0.627402E-09  0.243E-04    3.92      94.4  T
     SCC iter.                  ...        0 min,  1.308 sec
     gradient                   ...        0 min,  0.175 sec
 * total energy  :   -31.3446078 Eh     change       -0.4645351E-04 Eh
   gradient norm :     0.0032954 Eh/α   predicted    -0.3796075E-04 ( -18.28%)
   displ. norm   :     0.2286835 α      lambda       -0.5739136E-04
   maximum displ.:     0.1498494 α      in ANC's #1, #2, #4, ...

........................................................................
.............................. CYCLE   18 ..............................
........................................................................

 iter      E             dE          RMSdq      gap      omega  full diag
   1    -31.6967800 -0.316968E+02  0.968E-02    3.91       0.0  T
   2    -31.6967840 -0.396722E-05  0.417E-02    3.91       1.0  T
   3    -31.6967845 -0.526529E-06  0.131E-02    3.91       1.7  T
   4    -31.6967845 -0.289108E-07  0.516E-03    3.91       4.4  T
   5    -31.6967845 -0.657313E-08  0.191E-03    3.91      12.0  T
   6    -31.6967846 -0.346310E-07  0.792E-04    3.91      29.0  T
   7    -31.6967846 -0.517588E-09  0.264E-04    3.91      86.9  T
     SCC iter.                  ...        0 min,  1.246 sec
     gradient                   ...        0 min,  0.128 sec
 * total energy  :   -31.3446481 Eh     change       -0.4027936E-04 Eh
   gradient norm :     0.0036945 Eh/α   predicted    -0.3020163E-04 ( -25.02%)
   displ. norm   :     0.3512264 α      lambda       -0.9116602E-04
   maximum displ.:     0.2024033 α      in ANC's #1, #2, #4, ...

........................................................................
.............................. CYCLE   19 ..............................
........................................................................

 iter      E             dE          RMSdq      gap      omega  full diag
   1    -31.6966139 -0.316966E+02  0.141E-01    3.91       0.0  T
   2    -31.6966216 -0.770796E-05  0.635E-02    3.90       1.0  T
   3    -31.6966226 -0.104450E-05  0.192E-02    3.90       1.2  T
   4    -31.6966225  0.974833E-07  0.927E-03    3.90       2.5  T
   5    -31.6966230 -0.455222E-06  0.383E-03    3.90       6.0  T
   6    -31.6966231 -0.740831E-07  0.128E-03    3.90      17.9  T
   7    -31.6966231 -0.154685E-09  0.462E-04    3.90      49.6  T
   8    -31.6966231 -0.111882E-08  0.227E-04    3.90     101.1  T
     SCC iter.                  ...        0 min,  1.516 sec
     gradient                   ...        0 min,  0.081 sec
 * total energy  :   -31.3446963 Eh     change       -0.4826458E-04 Eh
   gradient norm :     0.0043802 Eh/α   predicted    -0.5123152E-04 (   6.15%)
   displ. norm   :     0.0781594 α      lambda       -0.5717918E-04
   maximum displ.:     0.0546376 α      in ANC's #1, #2, #4, ...

........................................................................
.............................. CYCLE   20 ..............................
........................................................................

 iter      E             dE          RMSdq      gap      omega  full diag
   1    -31.6982327 -0.316982E+02  0.374E-02    3.91       0.0  T
   2    -31.6982338 -0.110664E-05  0.176E-02    3.90       1.3  T
   3    -31.6982338 -0.210790E-07  0.631E-03    3.90       3.6  T
   4    -31.6982339 -0.973781E-07  0.317E-03    3.90       7.2  T
   5    -31.6982340 -0.603774E-07  0.128E-03    3.90      18.0  T
   6    -31.6982340 -0.518800E-08  0.407E-04    3.90      56.4  T
   7    -31.6982340 -0.574040E-09  0.236E-04    3.90      97.1  T
     SCC iter.                  ...        0 min,  1.009 sec
     gradient                   ...        0 min,  0.165 sec
 * total energy  :   -31.3447344 Eh     change       -0.3810541E-04 Eh
   gradient norm :     0.0023492 Eh/α   predicted    -0.2876154E-04 ( -24.52%)
   displ. norm   :     0.3081057 α      lambda       -0.5923990E-04
   maximum displ.:     0.2149710 α      in ANC's #1, #4, #2, ...
 * RMSD in coord.:     0.8897653 α      energy gain  -0.1576065E-01 Eh

generating ANC from exact Hessian ...
Using Lindh-Hessian (1995)
 Shifting diagonal of input Hessian by    7.7771507604580663E-003
 Lowest  eigenvalues of input Hessian
    0.000000    0.000000    0.000000    0.000000    0.000000    0.000000
    0.010000    0.011090    0.012714    0.017014    0.017126    0.018061
    0.023131    0.026866    0.031330    0.045421    0.051906    0.053982
 Highest eigenvalues
    1.566011    1.765305    1.854113    2.081873    2.088083    2.598835


........................................................................
.............................. CYCLE   21 ..............................
........................................................................

 iter      E             dE          RMSdq      gap      omega  full diag
   1    -31.6960027 -0.316960E+02  0.124E-01    3.90       0.0  T
   2    -31.6960085 -0.577473E-05  0.551E-02    3.89       1.0  T
   3    -31.6960094 -0.942330E-06  0.149E-02    3.89       1.5  T
   4    -31.6960095 -0.246380E-07  0.611E-03    3.89       3.8  T
   5    -31.6960096 -0.841284E-07  0.200E-03    3.89      11.5  T
   6    -31.6960096 -0.259995E-07  0.892E-04    3.89      25.7  T
   7    -31.6960096  0.111537E-09  0.410E-04    3.89      56.0  T
     SCC iter.                  ...        0 min,  0.820 sec
     gradient                   ...        0 min,  0.086 sec
 * total energy  :   -31.3447500 Eh     change       -0.1554172E-04 Eh
   gradient norm :     0.0057326 Eh/α   predicted     0.0000000E+00 (-100.00%)
   displ. norm   :     0.0242341 α      lambda       -0.5925547E-04
   maximum displ.:     0.0105435 α      in ANC's #4, #5, #2, ...

........................................................................
.............................. CYCLE   22 ..............................
........................................................................

 iter      E             dE          RMSdq      gap      omega  full diag
   1    -31.6978151 -0.316978E+02  0.181E-02    3.89       0.0  T
   2    -31.6978156 -0.524695E-06  0.108E-02    3.89       2.1  T
   3    -31.6978156 -0.120607E-07  0.311E-03    3.89       7.4  T
   4    -31.6978157 -0.256192E-07  0.117E-03    3.89      19.7  T
   5    -31.6978157 -0.701344E-08  0.647E-04    3.89      35.5  T
   6    -31.6978157 -0.130893E-08  0.194E-04    3.89     118.5  T
     SCC iter.                  ...        0 min,  0.631 sec
     gradient                   ...        0 min,  0.168 sec
 * total energy  :   -31.3447901 Eh     change       -0.4014342E-04 Eh
   gradient norm :     0.0021326 Eh/α   predicted    -0.3012194E-04 ( -24.96%)
   displ. norm   :     0.0316507 α      lambda       -0.1928723E-04
   maximum displ.:     0.0161681 α      in ANC's #4, #5, #2, ...

........................................................................
.............................. CYCLE   23 ..............................
........................................................................

 iter      E             dE          RMSdq      gap      omega  full diag
   1    -31.6986009 -0.316986E+02  0.136E-02    3.89       0.0  T
   2    -31.6986012 -0.325370E-06  0.803E-03    3.90       2.9  T
   3    -31.6986012 -0.106854E-07  0.259E-03    3.90       8.9  T
   4    -31.6986012 -0.103897E-07  0.996E-04    3.90      23.0  T
   5    -31.6986012 -0.609204E-08  0.558E-04    3.90      41.1  T
     SCC iter.                  ...        0 min,  1.281 sec
     gradient                   ...        0 min,  0.063 sec
 * total energy  :   -31.3448034 Eh     change       -0.1330111E-04 Eh
   gradient norm :     0.0009865 Eh/α   predicted    -0.9655109E-05 ( -27.41%)
   displ. norm   :     0.0660249 α      lambda       -0.1316631E-04
   maximum displ.:     0.0362779 α      in ANC's #5, #4, #3, ...

........................................................................
.............................. CYCLE   24 ..............................
........................................................................

 iter      E             dE          RMSdq      gap      omega  full diag
   1    -31.6988985 -0.316989E+02  0.216E-02    3.90       0.0  T
   2    -31.6988991 -0.553282E-06  0.127E-02    3.90       1.8  T
   3    -31.6988991 -0.259158E-07  0.363E-03    3.90       6.3  T
   4    -31.6988991 -0.150377E-07  0.136E-03    3.90      16.8  T
   5    -31.6988991 -0.822341E-08  0.825E-04    3.90      27.8  T
   6    -31.6988991 -0.314198E-08  0.224E-04    3.90     102.3  T
     SCC iter.                  ...        0 min,  0.898 sec
     gradient                   ...        0 min,  0.160 sec
 * total energy  :   -31.3448167 Eh     change       -0.1329036E-04 Eh
   gradient norm :     0.0019239 Eh/α   predicted    -0.6603389E-05 ( -50.31%)
   displ. norm   :     0.0905066 α      lambda       -0.1399722E-04
   maximum displ.:     0.0561743 α      in ANC's #5, #4, #3, ...

........................................................................
.............................. CYCLE   25 ..............................
........................................................................

 iter      E             dE          RMSdq      gap      omega  full diag
   1    -31.6983878 -0.316984E+02  0.245E-02    3.90       0.0  T
   2    -31.6983880 -0.238994E-06  0.145E-02    3.90       1.6  T
   3    -31.6983881 -0.244867E-07  0.252E-03    3.90       9.1  T
   4    -31.6983881 -0.825033E-08  0.114E-03    3.90      20.1  T
   5    -31.6983881 -0.159559E-08  0.612E-04    3.90      37.5  T
   6    -31.6983881 -0.255312E-08  0.136E-04    3.90     168.3  T
     SCC iter.                  ...        0 min,  0.796 sec
     gradient                   ...        0 min,  0.002 sec
 * total energy  :   -31.3448335 Eh     change       -0.1683524E-04 Eh
   gradient norm :     0.0022970 Eh/α   predicted    -0.7105314E-05 ( -57.79%)
   displ. norm   :     0.1308015 α      lambda       -0.2611925E-04
   maximum displ.:     0.0866747 α      in ANC's #5, #4, #3, ...

........................................................................
.............................. CYCLE   26 ..............................
........................................................................

 iter      E             dE          RMSdq      gap      omega  full diag
   1    -31.6975720 -0.316976E+02  0.339E-02    3.91       0.0  T
   2    -31.6975722 -0.206638E-06  0.202E-02    3.91       1.1  T
   3    -31.6975722  0.795099E-08  0.303E-03    3.91       7.6  T
   4    -31.6975722 -0.523761E-07  0.152E-03    3.91      15.1  T
   5    -31.6975722 -0.677927E-08  0.612E-04    3.91      37.5  T
   6    -31.6975722 -0.168723E-08  0.139E-04    3.91     164.8  T
     SCC iter.                  ...        0 min,  0.685 sec
     gradient                   ...        0 min,  0.196 sec
 * total energy  :   -31.3448524 Eh     change       -0.1880986E-04 Eh
   gradient norm :     0.0029010 Eh/α   predicted    -0.1328663E-04 ( -29.36%)
   displ. norm   :     0.1136421 α      lambda       -0.2148014E-04
   maximum displ.:     0.0785911 α      in ANC's #5, #4, #3, ...

........................................................................
.............................. CYCLE   27 ..............................
........................................................................

 iter      E             dE          RMSdq      gap      omega  full diag
   1    -31.6968631 -0.316969E+02  0.294E-02    3.91       0.0  T
   2    -31.6968633 -0.172335E-06  0.174E-02    3.91       1.3  T
   3    -31.6968632  0.566646E-07  0.318E-03    3.91       7.2  T
   4    -31.6968633 -0.862723E-07  0.131E-03    3.91      17.4  T
   5    -31.6968633 -0.771677E-08  0.446E-04    3.91      51.4  T
   6    -31.6968633 -0.719385E-09  0.115E-04    3.91     198.8  T
     SCC iter.                  ...        0 min,  0.816 sec
     gradient                   ...        0 min,  0.155 sec
 * total energy  :   -31.3448671 Eh     change       -0.1475486E-04 Eh
   gradient norm :     0.0034207 Eh/α   predicted    -0.1088330E-04 ( -26.24%)
   displ. norm   :     0.0873181 α      lambda       -0.3205026E-04
   maximum displ.:     0.0631308 α      in ANC's #5, #4, #3, ...

........................................................................
.............................. CYCLE   28 ..............................
........................................................................

 iter      E             dE          RMSdq      gap      omega  full diag
   1    -31.6968314 -0.316968E+02  0.257E-02    3.91       0.0  T
   2    -31.6968320 -0.520313E-06  0.146E-02    3.91       1.6  T
   3    -31.6968319  0.361180E-07  0.452E-03    3.91       5.1  T
   4    -31.6968320 -0.591650E-07  0.162E-03    3.91      14.1  T
   5    -31.6968320 -0.238671E-07  0.609E-04    3.91      37.7  T
   6    -31.6968320 -0.674987E-09  0.193E-04    3.91     119.1  T
     SCC iter.                  ...        0 min,  0.641 sec
     gradient                   ...        0 min,  0.069 sec
 * total energy  :   -31.3448913 Eh     change       -0.2414872E-04 Eh
   gradient norm :     0.0027536 Eh/α   predicted    -0.1619746E-04 ( -32.93%)
   displ. norm   :     0.1301181 α      lambda       -0.3679663E-04
   maximum displ.:     0.0937372 α      in ANC's #5, #4, #3, ...

........................................................................
.............................. CYCLE   29 ..............................
........................................................................

 iter      E             dE          RMSdq      gap      omega  full diag
   1    -31.6969243 -0.316969E+02  0.357E-02    3.91       0.0  T
   2    -31.6969249 -0.624402E-06  0.200E-02    3.90       1.1  T
   3    -31.6969249  0.167571E-07  0.579E-03    3.90       4.0  T
   4    -31.6969249 -0.415291E-07  0.210E-03    3.90      10.9  T
   5    -31.6969249 -0.391512E-07  0.786E-04    3.90      29.2  T
   6    -31.6969249 -0.132017E-08  0.260E-04    3.90      88.2  T
     SCC iter.                  ...        0 min,  0.749 sec
     gradient                   ...        0 min,  0.005 sec
 * total energy  :   -31.3449190 Eh     change       -0.2772338E-04 Eh
   gradient norm :     0.0031468 Eh/α   predicted    -0.1871211E-04 ( -32.50%)
   displ. norm   :     0.1263837 α      lambda       -0.4671245E-04
   maximum displ.:     0.0840327 α      in ANC's #5, #2, #4, ...

........................................................................
.............................. CYCLE   30 ..............................
........................................................................

 iter      E             dE          RMSdq      gap      omega  full diag
   1    -31.6980398 -0.316980E+02  0.370E-02    3.90       0.0  T
   2    -31.6980409 -0.112772E-05  0.200E-02    3.89       1.1  T
   3    -31.6980409 -0.138777E-07  0.741E-03    3.89       3.1  T
   4    -31.6980410 -0.275041E-07  0.249E-03    3.89       9.2  T
   5    -31.6980410 -0.660252E-07  0.100E-03    3.89      22.9  T
   6    -31.6980410 -0.233744E-08  0.338E-04    3.89      67.9  T
   7    -31.6980410  0.142357E-10  0.150E-04    3.89     153.4  T
     SCC iter.                  ...        0 min,  0.730 sec
     gradient                   ...        0 min,  0.171 sec
 * total energy  :   -31.3449484 Eh     change       -0.2943198E-04 Eh
   gradient norm :     0.0031696 Eh/α   predicted    -0.2374950E-04 ( -19.31%)
   displ. norm   :     0.3734572 α      lambda       -0.6853295E-04
   maximum displ.:     0.2653589 α      in ANC's #5, #4, #3, ...

........................................................................
.............................. CYCLE   31 ..............................
........................................................................

 iter      E             dE          RMSdq      gap      omega  full diag
   1    -31.6941630 -0.316942E+02  0.103E-01    3.89       0.0  T
   2    -31.6941670 -0.406097E-05  0.581E-02    3.88       1.0  T
   3    -31.6941672 -0.186771E-06  0.138E-02    3.89       1.7  T
   4    -31.6941674 -0.190487E-06  0.536E-03    3.88       4.3  T
   5    -31.6941677 -0.260583E-06  0.209E-03    3.89      11.0  T
   6    -31.6941677 -0.121262E-07  0.635E-04    3.89      36.1  T
   7    -31.6941677  0.381455E-10  0.253E-04    3.89      90.7  T
     SCC iter.                  ...        0 min,  0.560 sec
     gradient                   ...        0 min,  0.002 sec
 * total energy  :   -31.3447981 Eh     change        0.1502814E-03 Eh
   gradient norm :     0.0130342 Eh/α   predicted    -0.3908434E-04 (-126.01%)
   displ. norm   :     0.2568799 α      lambda       -0.4976721E-03
   maximum displ.:     0.1841772 α      in ANC's #5, #4, #3, ...

........................................................................
.............................. CYCLE   32 ..............................
........................................................................

 iter      E             dE          RMSdq      gap      omega  full diag
   1    -31.6983254 -0.316983E+02  0.800E-02    3.89       0.0  T
   2    -31.6983293 -0.385925E-05  0.448E-02    3.89       1.0  T
   3    -31.6983296 -0.298788E-06  0.111E-02    3.89       2.1  T
   4    -31.6983296 -0.535265E-07  0.359E-03    3.89       6.4  T
   5    -31.6983297 -0.552651E-07  0.169E-03    3.89      13.6  T
   6    -31.6983297 -0.126269E-07  0.504E-04    3.89      45.5  T
   7    -31.6983297 -0.282707E-09  0.251E-04    3.89      91.3  T
     SCC iter.                  ...        0 min,  0.273 sec
     gradient                   ...        0 min,  0.002 sec
 * total energy  :   -31.3449785 Eh     change       -0.1803883E-03 Eh
   gradient norm :     0.0021393 Eh/α   predicted    -0.2652655E-03 (  47.05%)
   displ. norm   :     0.0455314 α      lambda       -0.1338583E-04
   maximum displ.:     0.0309716 α      in ANC's #5, #4, #2, ...

........................................................................
.............................. CYCLE   33 ..............................
........................................................................

 iter      E             dE          RMSdq      gap      omega  full diag
   1    -31.6982332 -0.316982E+02  0.123E-02    3.89       0.0  T
   2    -31.6982332 -0.814255E-07  0.738E-03    3.89       3.1  T
   3    -31.6982332  0.234728E-07  0.209E-03    3.89      11.0  T
   4    -31.6982332 -0.265888E-07  0.752E-04    3.89      30.5  T
   5    -31.6982333 -0.826133E-08  0.232E-04    3.89      98.9  T
     SCC iter.                  ...        0 min,  0.258 sec
     gradient                   ...        0 min,  0.130 sec
 * total energy  :   -31.3449910 Eh     change       -0.1248082E-04 Eh
   gradient norm :     0.0014306 Eh/α   predicted    -0.6728891E-05 ( -46.09%)
   displ. norm   :     0.5092903 α      lambda       -0.7910554E-04
   maximum displ.:     0.3525476 α      in ANC's #5, #4, #2, ...

........................................................................
.............................. CYCLE   34 ..............................
........................................................................

 iter      E             dE          RMSdq      gap      omega  full diag
   1    -31.6930597 -0.316931E+02  0.136E-01    3.88       0.0  T
   2    -31.6930670 -0.730168E-05  0.803E-02    3.89       1.0  T
   3    -31.6930652  0.183890E-05  0.194E-02    3.89       1.2  T
   4    -31.6930678 -0.264411E-05  0.763E-03    3.89       3.0  T
   5    -31.6930685 -0.659814E-06  0.257E-03    3.89       8.9  T
   6    -31.6930685 -0.143360E-07  0.664E-04    3.89      34.5  T
   7    -31.6930685 -0.373245E-09  0.275E-04    3.89      83.4  T
     SCC iter.                  ...        0 min,  0.665 sec
     gradient                   ...        0 min,  0.056 sec
 * total energy  :   -31.3447664 Eh     change        0.2245625E-03 Eh
   gradient norm :     0.0147587 Eh/α   predicted    -0.4413541E-04 (-119.65%)
   displ. norm   :     0.2535788 α      lambda       -0.5660138E-03
   maximum displ.:     0.1774045 α      in ANC's #5, #4, #2, ...

........................................................................
.............................. CYCLE   35 ..............................
........................................................................

 iter      E             dE          RMSdq      gap      omega  full diag
   1    -31.6973008 -0.316973E+02  0.751E-02    3.90       0.0  T
   2    -31.6973039 -0.305178E-05  0.434E-02    3.89       1.0  T
   3    -31.6973038  0.129975E-06  0.102E-02    3.89       2.2  T
   4    -31.6973042 -0.415818E-06  0.409E-03    3.89       5.6  T
   5    -31.6973044 -0.171442E-06  0.155E-03    3.89      14.8  T
   6    -31.6973044 -0.604603E-08  0.401E-04    3.89      57.2  T
   7    -31.6973044 -0.874607E-10  0.169E-04    3.89     136.2  T
     SCC iter.                  ...        0 min,  0.522 sec
     gradient                   ...        0 min,  0.065 sec
 * total energy  :   -31.3450238 Eh     change       -0.2573608E-03 Eh
   gradient norm :     0.0031998 Eh/α   predicted    -0.3013122E-03 (  17.08%)
   displ. norm   :     0.0075224 α      lambda       -0.1128736E-04
   maximum displ.:     0.0035130 α      in ANC's #5, #9, #27, ...

........................................................................
.............................. CYCLE   36 ..............................
........................................................................

 iter      E             dE          RMSdq      gap      omega  full diag
   1    -31.6977017 -0.316977E+02  0.683E-03    3.89       0.0  T
   2    -31.6977018 -0.961341E-07  0.381E-03    3.89       6.0  T
   3    -31.6977018 -0.119023E-08  0.153E-03    3.89      15.0  T
   4    -31.6977018 -0.428996E-08  0.603E-04    3.89      38.0  T
   5    -31.6977018 -0.327267E-08  0.247E-04    3.89      92.9  T
     SCC iter.                  ...        0 min,  0.306 sec
     gradient                   ...        0 min,  0.002 sec
 * total energy  :   -31.3450328 Eh     change       -0.8953938E-05 Eh
   gradient norm :     0.0018946 Eh/α   predicted    -0.5645550E-05 ( -36.95%)
   displ. norm   :     0.0463122 α      lambda       -0.1406514E-04
   maximum displ.:     0.0348565 α      in ANC's #5, #4, #27, ...

........................................................................
.............................. CYCLE   37 ..............................
........................................................................

 iter      E             dE          RMSdq      gap      omega  full diag
   1    -31.6984092 -0.316984E+02  0.198E-02    3.89       0.0  T
   2    -31.6984099 -0.615746E-06  0.111E-02    3.89       2.1  T
   3    -31.6984098  0.171048E-07  0.432E-03    3.89       5.3  T
   4    -31.6984099 -0.500009E-07  0.170E-03    3.89      13.5  T
   5    -31.6984099 -0.272596E-07  0.632E-04    3.89      36.3  T
   6    -31.6984099 -0.105679E-08  0.140E-04    3.89     163.8  T
     SCC iter.                  ...        0 min,  0.416 sec
     gradient                   ...        0 min,  0.152 sec
 * total energy  :   -31.3450433 Eh     change       -0.1053191E-04 Eh
   gradient norm :     0.0010624 Eh/α   predicted    -0.7025957E-05 ( -33.29%)
   displ. norm   :     0.0584886 α      lambda       -0.6759476E-05
   maximum displ.:     0.0437381 α      in ANC's #5, #4, #3, ...

........................................................................
.............................. CYCLE   38 ..............................
........................................................................

 iter      E             dE          RMSdq      gap      omega  full diag
   1    -31.6982279 -0.316982E+02  0.148E-02    3.89       0.0  T
   2    -31.6982279 -0.358692E-07  0.869E-03    3.89       2.6  T
   3    -31.6982279  0.108895E-07  0.162E-03    3.89      14.2  T
   4    -31.6982279 -0.162204E-07  0.705E-04    3.89      32.6  T
   5    -31.6982279 -0.380260E-08  0.227E-04    3.89     101.0  T
     SCC iter.                  ...        0 min,  0.860 sec
     gradient                   ...        0 min,  0.029 sec
 * total energy  :   -31.3450531 Eh     change       -0.9773734E-05 Eh
   gradient norm :     0.0008508 Eh/α   predicted    -0.3377380E-05 ( -65.44%)
   displ. norm   :     0.7601445 α      lambda       -0.8013804E-04
   maximum displ.:     0.5650830 α      in ANC's #5, #4, #3, ...

........................................................................
.............................. CYCLE   39 ..............................
........................................................................

 iter      E             dE          RMSdq      gap      omega  full diag
   1    -31.6865090 -0.316865E+02  0.212E-01    3.89       0.0  T
   2    -31.6865312 -0.221289E-04  0.122E-01    3.89       1.0  T
   3    -31.6865330 -0.181187E-05  0.244E-02    3.89       1.0  T
   4    -31.6865341 -0.115134E-05  0.987E-03    3.89       2.3  T
   5    -31.6865345 -0.345621E-06  0.500E-03    3.89       4.6  T
   6    -31.6865346 -0.175815E-06  0.130E-03    3.89      17.6  T
   7    -31.6865346 -0.105793E-08  0.544E-04    3.89      42.2  T
   8    -31.6865346 -0.232916E-09  0.214E-04    3.89     107.0  T
     SCC iter.                  ...        0 min,  0.637 sec
     gradient                   ...        0 min,  0.125 sec
 * total energy  :   -31.3438248 Eh     change        0.1228222E-02 Eh
   gradient norm :     0.0294591 Eh/α   predicted    -0.4815144E-04 (-103.92%)
   displ. norm   :     0.3125681 α      lambda       -0.3332258E-02
   maximum displ.:     0.2271586 α      in ANC's #5, #4, #3, ...

........................................................................
.............................. CYCLE   40 ..............................
........................................................................

 iter      E             dE          RMSdq      gap      omega  full diag
   1    -31.6948295 -0.316948E+02  0.110E-01    3.89       0.0  T
   2    -31.6948413 -0.118132E-04  0.624E-02    3.89       1.0  T
   3    -31.6948422 -0.918572E-06  0.152E-02    3.89       1.5  T
   4    -31.6948424 -0.179737E-06  0.410E-03    3.89       5.6  T
   5    -31.6948424  0.707093E-08  0.207E-03    3.89      11.1  T
   6    -31.6948424 -0.351211E-07  0.700E-04    3.89      32.8  T
   7    -31.6948424 -0.224471E-08  0.281E-04    3.89      81.5  T
     SCC iter.                  ...        0 min,  0.805 sec
     gradient                   ...        0 min,  0.083 sec
 * total energy  :   -31.3450024 Eh     change       -0.1177585E-02 Eh
   gradient norm :     0.0082752 Eh/α   predicted    -0.1347548E-02 (  14.43%)
   displ. norm   :     0.0539436 α      lambda       -0.2240435E-03
   maximum displ.:     0.0398249 α      in ANC's #5, #4, #3, ...

........................................................................
.............................. CYCLE   41 ..............................
........................................................................

 iter      E             dE          RMSdq      gap      omega  full diag
   1    -31.6967265 -0.316967E+02  0.218E-02    3.89       0.0  T
   2    -31.6967271 -0.555575E-06  0.124E-02    3.89       1.9  T
   3    -31.6967271 -0.285854E-07  0.340E-03    3.89       6.8  T
   4    -31.6967271 -0.134728E-07  0.986E-04    3.89      23.3  T
   5    -31.6967271 -0.630015E-08  0.627E-04    3.89      36.6  T
     SCC iter.                  ...        0 min,  0.556 sec
     gradient                   ...        0 min,  0.185 sec
 * total energy  :   -31.3450741 Eh     change       -0.7172289E-04 Eh
   gradient norm :     0.0036278 Eh/α   predicted    -0.5162756E-04 ( -28.02%)
   displ. norm   :     0.0331249 α      lambda       -0.8689683E-04
   maximum displ.:     0.0234978 α      in ANC's #5, #4, #3, ...

........................................................................
.............................. CYCLE   42 ..............................
........................................................................

 iter      E             dE          RMSdq      gap      omega  full diag
   1    -31.6979150 -0.316979E+02  0.143E-02    3.89       0.0  T
   2    -31.6979152 -0.250181E-06  0.819E-03    3.89       2.8  T
   3    -31.6979152  0.711107E-08  0.266E-03    3.90       8.6  T
   4    -31.6979152 -0.225008E-07  0.900E-04    3.89      25.5  T
   5    -31.6979152 -0.968894E-08  0.430E-04    3.89      53.3  T
     SCC iter.                  ...        0 min,  0.249 sec
     gradient                   ...        0 min,  0.093 sec
 * total energy  :   -31.3450899 Eh     change       -0.1572081E-04 Eh
   gradient norm :     0.0008620 Eh/α   predicted    -0.1371897E-04 ( -12.73%)
   displ. norm   :     0.0125212 α      lambda        0.1568184E-06
   maximum displ.:     0.0058273 α      in ANC's #1, #9, #7, ...
 * RMSD in coord.:     0.3624394 α      energy gain  -0.3554332E-03 Eh

generating ANC from exact Hessian ...
Using Lindh-Hessian (1995)
 Shifting diagonal of input Hessian by    7.8213541148747599E-003
 Lowest  eigenvalues of input Hessian
    0.000000    0.000000    0.000000    0.000000    0.000000    0.000000
    0.010000    0.011136    0.012740    0.015876    0.017041    0.017955
    0.023132    0.027003    0.031709    0.045273    0.051643    0.054727
 Highest eigenvalues
    1.561748    1.765628    1.851418    2.080313    2.087147    2.605484


........................................................................
.............................. CYCLE   43 ..............................
........................................................................

 iter      E             dE          RMSdq      gap      omega  full diag
   1    -31.6982800 -0.316983E+02  0.808E-03    3.90       0.0  T
   2    -31.6982801 -0.357380E-07  0.396E-03    3.90       5.8  T
   3    -31.6982801 -0.140803E-08  0.131E-03    3.90      17.5  T
   4    -31.6982801 -0.415131E-09  0.599E-04    3.90      38.3  T
   5    -31.6982801 -0.318600E-08  0.206E-04    3.90     111.5  T
     SCC iter.                  ...        0 min,  0.440 sec
     gradient                   ...        0 min,  0.123 sec
 * total energy  :   -31.3450887 Eh     change        0.1168370E-05 Eh
   gradient norm :     0.0013831 Eh/α   predicted     0.0000000E+00 (-100.00%)
   displ. norm   :     0.0085695 α      lambda       -0.1883085E-05
   maximum displ.:     0.0041615 α      in ANC's #3, #5, #16, ...

........................................................................
.............................. CYCLE   44 ..............................
........................................................................

 iter      E             dE          RMSdq      gap      omega  full diag
   1    -31.6979504 -0.316980E+02  0.640E-03    3.90       0.0  T
   2    -31.6979504 -0.276205E-07  0.370E-03    3.90       6.2  T
   3    -31.6979504 -0.180698E-09  0.904E-04    3.90      25.4  T
   4    -31.6979504 -0.169187E-08  0.308E-04    3.90      74.4  T
     SCC iter.                  ...        0 min,  0.347 sec
     gradient                   ...        0 min,  0.111 sec
 * total energy  :   -31.3450913 Eh     change       -0.2604808E-05 Eh
   gradient norm :     0.0002973 Eh/α   predicted    -0.1710673E-05 ( -34.33%)
   displ. norm   :     0.0072300 α      lambda       -0.5487997E-06
   maximum displ.:     0.0047058 α      in ANC's #3, #5, #2, ...

   *** GEOMETRY OPTIMIZATION CONVERGED AFTER 44 ITERATIONS ***

------------------------------------------------------------------------
 total energy gain   :        -0.0161175 Eh      -10.1139 kcal/mol
 total RMSD          :         1.0918310 a0        0.5778 Å
 total power (kW/mol):        -0.9617395 (step)   -0.9299 (real)
------------------------------------------------------------------------

 ANCopt (total)                0 d,  0 h,  0 min, 45.509 sec
 optimizer setup                ...        0 min,  0.000 sec (  0.001%)
 model hessian                  ...        0 min,  0.009 sec (  0.021%)
 ANC generation                 ...        0 min,  0.002 sec (  0.003%)
 coordinate transformation      ...        0 min,  0.000 sec (  0.001%)
 single point calculation       ...        0 min, 45.016 sec ( 98.916%)
 optimization log               ...        0 min,  0.004 sec (  0.008%)
 hessian update                 ...        0 min,  0.467 sec (  1.027%)
 rational function              ...        0 min,  0.005 sec (  0.011%)

================
 final structure:
================
19
 xtb: 6.7.1 (edcfbbe)
N           -0.39192477790182        1.20668353210732       -0.47586861053934
N           -1.50217240426028        0.58559913384685       -0.10541995527222
C           -2.74080297996293        1.29915028939243        0.00949247382989
C           -1.28227747197926       -0.72676607172529        0.12329100293398
C            0.05566550516145       -0.97430682130650       -0.11448304046006
C            0.79348959994208       -2.25892441554168        0.01646272241677
C            0.56460518768754        0.28621364495000       -0.48618340933602
S            2.22840884394634        0.81467563403054       -0.99990750037307
O            3.00353185759917       -0.41094384488211       -1.09788446194399
N            2.70719819626899        1.53987419674923        0.48664987011621
H           -3.49468907144796        0.86552119200138       -0.64998214128502
H           -2.55596477094079        2.33121880754486       -0.28106425423272
H           -3.10869677924836        1.27084286138334        1.03728199412884
H           -2.07108258199061       -1.38503841488905        0.42752228997279
H            0.17588888192029       -3.08803054588260       -0.32317003699157
H            1.05925942632986       -2.43920326893829        1.05893398526216
H            1.70905939491931       -2.22068502402853       -0.56685834607551
H            2.65535969769461        0.91235785678470        1.27829759228455
H            2.19514424626186        2.39176125840442        0.66288782556493

 Bond Distances (Angstroems)
 ---------------------------
N1-N2=1.3250         N1-C7=1.3275         N2-N1=1.3250         N2-C3=1.4341         N2-C4=1.3502         C3-N2=1.4341         
C3-H11=1.0915        C3-H12=1.0880        C3-H13=1.0920        C4-N2=1.3502         C4-C5=1.3813         C4-H14=1.0715        
C5-C4=1.3813         C5-C6=1.4872         C5-C7=1.4093         C6-C5=1.4872         C6-H15=1.0882        C6-H16=1.0908        
C6-H17=1.0863        C7-N1=1.3275         C7-C5=1.4093         C7-S8=1.8197         S8-C7=1.8197         S8-O9=1.4535         
S8-N10=1.7219        O9-S8=1.4535         N10-S8=1.7219        N10-H18=1.0115       N10-H19=1.0094       H11-C3=1.0915        
H12-C3=1.0880        H13-C3=1.0920        H14-C4=1.0715        H15-C6=1.0882        H16-C6=1.0908        H17-C6=1.0863        
H18-N10=1.0115       H19-N10=1.0094       
 C  H  Rav=1.0869 sigma=0.0066  Rmin=1.0715  Rmax=1.0920     7
 C  C  Rav=1.4259 sigma=0.0448  Rmin=1.3813  Rmax=1.4872     3
 N  H  Rav=1.0105 sigma=0.0010  Rmin=1.0094  Rmax=1.0115     2
 N  C  Rav=1.3706 sigma=0.0458  Rmin=1.3275  Rmax=1.4341     3
 N  N  Rav=1.3250 sigma=0.0000  Rmin=1.3250  Rmax=1.3250     1
 S  C  Rav=1.8197 sigma=0.0000  Rmin=1.8197  Rmax=1.8197     1
 S  N  Rav=1.7219 sigma=0.0000  Rmin=1.7219  Rmax=1.7219     1
 S  O  Rav=1.4535 sigma=0.0000  Rmin=1.4535  Rmax=1.4535     1

 selected bond angles (degree)
 --------------------
C7-N1-N2=106.31                C3-N2-N1=120.86                C4-N2-N1=111.50                C4-N2-C3=127.64                
H11-C3-N2=110.52               H12-C3-N2=107.69               H12-C3-H11=109.44              H13-C3-N2=110.70               
H13-C3-H11=109.01              H13-C3-H12=109.46              C5-C4-N2=107.63                H14-C4-N2=121.69               
H14-C4-C5=130.68               C6-C5-C4=128.33                C7-C5-C4=103.59                C7-C5-C6=128.07                
H15-C6-C5=110.43               H16-C6-C5=110.35               H16-C6-H15=108.10              H17-C6-C5=109.91               
H17-C6-H15=109.73              H17-C6-H16=108.28              C5-C7-N1=110.97                S8-C7-N1=117.36                
S8-C7-C5=131.64                O9-S8-C7=105.17                N10-S8-C7= 97.63               N10-S8-O9=105.37               
H18-N10-S8=113.59              H19-N10-S8=111.41              H19-N10-H18=111.16             

 selected dihedral angles (degree)
 ---------------------------------
C3-N2-N1-C7=180.00            C4-N2-N1-C7=359.89            H11-C3-N2-N1=121.18           H11-C3-N2-C4=301.31           
H12-C3-N2-N1=  1.69           H12-C3-N2-C4=181.81           H13-C3-N2-N1=242.06           H13-C3-N2-C4= 62.18           
C5-C4-N2-N1=359.96            C5-C4-N2-C3=179.84            H14-C4-N2-N1=180.28           H14-C4-N2-C3=  0.16           
C6-C5-C4-N2=179.05            C6-C5-C4-H14=358.69           C7-C5-C4-N2=  0.16            C7-C5-C4-H14=179.80           
H15-C6-C5-C4= 38.42           H15-C6-C5-C7=217.04           H16-C6-C5-C4=278.96           H16-C6-C5-C7= 97.59           
H17-C6-C5-C4=159.62           H17-C6-C5-C7=338.24           C5-C7-N1-N2=  0.22            S8-C7-N1-N2=178.51            
N1-C7-C5-C4=359.76            N1-C7-C5-C6=180.88            S8-C7-C5-C4=181.79            S8-C7-C5-C6=  2.90            
O9-S8-C7-N1=187.83            O9-S8-C7-C5=  5.70            N10-S8-C7-N1= 79.57           N10-S8-C7-C5=257.43           
H18-N10-S8-C7= 56.52          H18-N10-S8-O9=308.42          H19-N10-S8-C7=290.06          H19-N10-S8-O9=181.96          
           -------------------------------------------------
          |                Final Singlepoint                |
           -------------------------------------------------

          ...................................................
          :                      SETUP                      :
          :.................................................:
          :  # basis functions                  55          :
          :  # atomic orbitals                  54          :
          :  # shells                           30          :
          :  # electrons                        56          :
          :  max. iterations                   250          :
          :  Hamiltonian                  GFN2-xTB          :
          :  restarted?                      false          :
          :  GBSA solvation                  false          :
          :  PC potential                    false          :
          :  electronic temp.          300.0000000     K    :
          :  accuracy                    1.0000000          :
          :  -> integral cutoff          0.2500000E+02      :
          :  -> integral neglect         0.1000000E-07      :
          :  -> SCF convergence          0.1000000E-05 Eh   :
          :  -> wf. convergence          0.1000000E-03 e    :
          :  Broyden damping             0.4000000          :
          :  net charge                          0          :
          :  unpaired electrons                  0          :
          ...................................................

 iter      E             dE          RMSdq      gap      omega  full diag
   1    -31.6979504 -0.316980E+02  0.153E-04    3.90       0.0  T
   2    -31.6979504 -0.622968E-10  0.830E-05    3.90     276.4  T
   3    -31.6979504 -0.404050E-10  0.516E-05    3.90     444.9  T

   *** convergence criteria satisfied after 3 iterations ***

         #    Occupation            Energy/Eh            Energy/eV
      -------------------------------------------------------------
         1        2.0000           -0.7466046             -20.3161
       ...           ...                  ...                  ...
        22        2.0000           -0.4531653             -12.3313
        23        2.0000           -0.4210004             -11.4560
        24        2.0000           -0.4139434             -11.2640
        25        2.0000           -0.4040568             -10.9949
        26        2.0000           -0.3992295             -10.8636
        27        2.0000           -0.3911702             -10.6443
        28        2.0000           -0.3726046             -10.1391 (HOMO)
        29                         -0.2294300              -6.2431 (LUMO)
        30                         -0.1947755              -5.3001
        31                         -0.1580790              -4.3015
        32                         -0.1412058              -3.8424
        33                         -0.0478399              -1.3018
       ...                                ...                  ...
        54                          0.9803671              26.6771
      -------------------------------------------------------------
                  HL-Gap            0.1431746 Eh            3.8960 eV
             Fermi-level           -0.3010173 Eh           -8.1911 eV

 SCC (total)                   0 d,  0 h,  0 min,  0.394 sec
 SCC setup                      ...        0 min,  0.009 sec (  2.182%)
 Dispersion                     ...        0 min,  0.019 sec (  4.866%)
 classical contributions        ...        0 min,  0.006 sec (  1.609%)
 integral evaluation            ...        0 min,  0.026 sec (  6.692%)
 iterations                     ...        0 min,  0.218 sec ( 55.413%)
 molecular gradient             ...        0 min,  0.115 sec ( 29.201%)
 printout                       ...        0 min,  0.000 sec (  0.033%)

         :::::::::::::::::::::::::::::::::::::::::::::::::::::
         ::                     SUMMARY                     ::
         :::::::::::::::::::::::::::::::::::::::::::::::::::::
         :: total energy             -31.345091303123 Eh    ::
         :: gradient norm              0.000298069006 Eh/a0 ::
         :: HOMO-LUMO gap              3.895980264020 eV    ::
         ::.................................................::
         :: SCC energy               -31.697871576575 Eh    ::
         :: -> isotropic ES            0.054914163912 Eh    ::
         :: -> anisotropic ES          0.001918434182 Eh    ::
         :: -> anisotropic XC          0.018838005624 Eh    ::
         :: -> dispersion             -0.016765196918 Eh    ::
         :: repulsion energy           0.352780273452 Eh    ::
         :: add. restraining           0.000000000000 Eh    ::
         :: total charge              -0.000000000000 e     ::
         :::::::::::::::::::::::::::::::::::::::::::::::::::::

           -------------------------------------------------
          |                Property Printout                |
           -------------------------------------------------

    * Orbital Energies and Occupations

         #    Occupation            Energy/Eh            Energy/eV
      -------------------------------------------------------------
         1        2.0000           -0.7466046             -20.3161
       ...           ...                  ...                  ...
        16        2.0000           -0.5042590             -13.7216
        17        2.0000           -0.4991772             -13.5833
        18        2.0000           -0.4889047             -13.3038
        19        2.0000           -0.4779039             -13.0044
        20        2.0000           -0.4714640             -12.8292
        21        2.0000           -0.4638779             -12.6228
        22        2.0000           -0.4531653             -12.3313
        23        2.0000           -0.4210004             -11.4560
        24        2.0000           -0.4139434             -11.2640
        25        2.0000           -0.4040568             -10.9949
        26        2.0000           -0.3992295             -10.8636
        27        2.0000           -0.3911702             -10.6443
        28        2.0000           -0.3726046             -10.1391 (HOMO)
        29                         -0.2294300              -6.2431 (LUMO)
        30                         -0.1947755              -5.3001
        31                         -0.1580790              -4.3015
        32                         -0.1412058              -3.8424
        33                         -0.0478399              -1.3018
        34                          0.0104733               0.2850
        35                          0.0494291               1.3450
        36                          0.0754627               2.0534
        37                          0.1060586               2.8860
        38                          0.1165819               3.1724
        39                          0.1270067               3.4560
       ...                                ...                  ...
        54                          0.9803671              26.6771
      -------------------------------------------------------------
                  HL-Gap            0.1431746 Eh            3.8960 eV
             Fermi-level           -0.3010173 Eh           -8.1911 eV

     #   Z          covCN         q      C6AA      α(0)
     1   7 N        2.038    -0.259    27.496     7.778
     2   7 N        3.025     0.090    19.680     6.589
     3   6 C        3.692    -0.064    21.923     6.700
     4   6 C        3.040    -0.033    28.781     8.799
     5   6 C        3.057    -0.015    28.339     8.730
     6   6 C        3.753    -0.109    22.640     6.785
     7   6 C        3.164    -0.004    27.778     8.614
     8  16 S        2.778     0.524   121.520    18.553
     9   8 O        0.860    -0.490    23.568     6.509
    10   7 N        2.632    -0.382    29.867     8.117
    11   1 H        0.924     0.064     2.148     2.292
    12   1 H        0.925     0.086     1.918     2.166
    13   1 H        0.924     0.063     2.168     2.303
    14   1 H        0.926     0.036     2.502     2.473
    15   1 H        0.925     0.037     2.485     2.465
    16   1 H        0.924     0.042     2.427     2.436
    17   1 H        0.925     0.077     2.014     2.219
    18   1 H        0.861     0.172     1.259     1.757
    19   1 H        0.861     0.166     1.299     1.786

 Mol. C6AA /au·bohr⁶  :       4755.988000
 Mol. C8AA /au·bohr⁸  :     122488.008115
 Mol. α(0) /au        :        107.071582


Wiberg/Mayer (AO) data.
largest (>0.10) Wiberg bond orders for each atom

 ---------------------------------------------------------------------------
     #   Z sym  total        # sym  WBO       # sym  WBO       # sym  WBO
 ---------------------------------------------------------------------------
     1   7 N    2.961 --     7 C    1.457     2 N    1.217     4 C    0.158
     2   7 N    3.681 --     4 C    1.267     1 N    1.217     3 C    1.002
     3   6 C    3.966 --     2 N    1.002    12 H    0.978    11 H    0.973
                            13 H    0.973
     4   6 C    3.953 --     5 C    1.475     2 N    1.267    14 H    0.968
                             1 N    0.158
     5   6 C    3.982 --     4 C    1.475     7 C    1.324     6 C    1.032
     6   6 C    3.993 --     5 C    1.032    15 H    0.980    17 H    0.974
                            16 H    0.968
     7   6 C    3.954 --     1 N    1.457     5 C    1.324     8 S    0.922
     8  16 S    3.928 --     9 O    1.844    10 N    1.076     7 C    0.922
     9   8 O    2.021 --     8 S    1.844
    10   7 N    3.113 --     8 S    1.076    19 H    0.955    18 H    0.950
    11   1 H    0.995 --     3 C    0.973
    12   1 H    0.992 --     3 C    0.978
    13   1 H    0.995 --     3 C    0.973
    14   1 H    0.998 --     4 C    0.968
    15   1 H    0.998 --     6 C    0.980
    16   1 H    0.998 --     6 C    0.968
    17   1 H    0.994 --     6 C    0.974
    18   1 H    0.970 --    10 N    0.950
    19   1 H    0.973 --    10 N    0.955
 ---------------------------------------------------------------------------

Topologies differ in total number of bonds
Writing topology from bond orders to xtbtopo.mol

molecular dipole:
                 x           y           z       tot (Debye)
 q only:       -1.805       0.819       0.516
   full:       -2.277       0.386       1.044       6.443
molecular quadrupole (traceless):
                xx          xy          yy          xz          yz          zz
 q only:       -4.878       2.241       4.461       3.695      -1.752       0.418
  q+dip:       -6.532       2.213       4.751       6.040      -0.735       1.782
   full:       -6.720       1.925       4.165       6.401      -0.022       2.555

           -------------------------------------------------
          |                Geometry Summary                 |
           -------------------------------------------------

      molecular mass/u    :      159.2094482
   center of mass at/Å    :        0.6035709       0.2281706      -0.3373540
  moments of inertia/u·Å² :        0.2502270E+03   0.6007646E+03   0.7735137E+03
rotational constants/cm⁻¹ :        0.6736935E-01   0.2806029E-01   0.2179358E-01

 * 18 selected distances

     #   Z          #   Z                                           value/Å
     1   7 N        2   7 N                                       1.3250012
     2   7 N        3   6 C                                       1.4340733
     2   7 N        4   6 C                                       1.3501723
     4   6 C        5   6 C                                       1.3812692
     5   6 C        6   6 C                                       1.4872034
     1   7 N        7   6 C                                       1.3275244
     5   6 C        7   6 C                                       1.4092881
     8  16 S        9   8 O                                       1.4534644
     8  16 S       10   7 N                                       1.7219192 (max)
     3   6 C       11   1 H                                       1.0914602
     3   6 C       12   1 H                                       1.0880046
     3   6 C       13   1 H                                       1.0920159
     4   6 C       14   1 H                                       1.0714910
     6   6 C       15   1 H                                       1.0882087
     6   6 C       16   1 H                                       1.0908165
     6   6 C       17   1 H                                       1.0862753
    10   7 N       18   1 H                                       1.0115188
    10   7 N       19   1 H                                       1.0094408 (min)

 * 7 distinct bonds (by element types)

   Z      Z             #   av. dist./Å        max./Å        min./Å
   1 H    6 C           7     1.0868960     1.0920159     1.0714910
   6 C    6 C           3     1.4259202     1.4872034     1.3812692
   1 H    7 N           2     1.0104798     1.0115188     1.0094408
   6 C    7 N           3     1.3705900     1.4340733     1.3275244
   7 N    7 N           1     1.3250012     1.3250012     1.3250012
   7 N   16 S           1     1.7219192     1.7219192     1.7219192
   8 O   16 S           1     1.4534644     1.4534644     1.4534644


optimized geometry written to: xtbopt.xyz


           -------------------------------------------------
          | TOTAL ENERGY              -31.345091303123 Eh   |
          | GRADIENT NORM               0.000298069006 Eh/α |
          | HOMO-LUMO GAP               3.895980264020 eV   |
           -------------------------------------------------

------------------------------------------------------------------------
 * finished run on 2026/08/20 at 09:39:05.569     
------------------------------------------------------------------------
 total:
 * wall-time:     0 d,  0 h,  0 min, 49.209 sec
 *  cpu-time:     0 d,  0 h,  3 min, 43.660 sec
 * ratio c/w:     4.545 speedup
 SCF:
 * wall-time:     0 d,  0 h,  0 min,  3.151 sec
 *  cpu-time:     0 d,  0 h,  0 min, 10.378 sec
 * ratio c/w:     3.294 speedup
 ANC optimizer:
 * wall-time:     0 d,  0 h,  0 min, 45.913 sec
 *  cpu-time:     0 d,  0 h,  3 min, 32.744 sec
 * ratio c/w:     4.634 speedup

