19

N     -0.529262    1.333859   -0.525749
N     -1.600396    0.657717   -0.140647
C     -2.953635    1.194184   -0.176372
C     -1.264555   -0.608459    0.170157
C      0.099335   -0.740932    0.013018
C      0.886232   -2.006176    0.138705
C      0.525231    0.500841   -0.436673
S      2.179691    0.983830   -0.884980
O      2.778837   -0.244867   -1.555786
N      3.041675    1.118705    0.634601
H     -3.433727    0.926651   -1.140752
H     -2.926707    2.299936   -0.076609
H     -3.552147    0.775764    0.660615
H     -1.962525   -1.383083    0.462106
H      0.338573   -2.735068    0.772480
H      1.870793   -1.806077    0.606326
H      1.040292   -2.447631   -0.867711
H      2.844526    0.260327    1.194580
H      2.617769    1.920479    1.152689
