      -----------------------------------------------------------      
     |                   =====================                   |     
     |                           x T B                           |     
     |                   =====================                   |     
     |                         S. Grimme                         |     
     |          Mulliken Center for Theoretical Chemistry        |     
     |                    University of Bonn                     |     
      -----------------------------------------------------------      

   * xtb version 6.7.1 (edcfbbe) compiled by 'conda@3ef47c1a292c' on 2024-11-25

   xtb is free software: you can redistribute it and/or modify it under
   the terms of the GNU Lesser General Public License as published by
   the Free Software Foundation, either version 3 of the License, or
   (at your option) any later version.
   
   xtb is distributed in the hope that it will be useful,
   but WITHOUT ANY WARRANTY; without even the implied warranty of
   MERCHANTABILITY or FITNESS FOR A PARTICULAR PURPOSE.  See the
   GNU Lesser General Public License for more details.
   
   Cite this work as:
   * C. Bannwarth, E. Caldeweyher, S. Ehlert, A. Hansen, P. Pracht,
     J. Seibert, S. Spicher, S. Grimme, WIREs Comput. Mol. Sci., 2020, 11,
     e01493. DOI: 10.1002/wcms.1493
   
   for GFN2-xTB:
   * C. Bannwarth, S. Ehlert and S. Grimme., J. Chem. Theory Comput., 2019,
     15, 1652-1671. DOI: 10.1021/acs.jctc.8b01176
   for GFN1-xTB:
   * S. Grimme, C. Bannwarth, P. Shushkov, J. Chem. Theory Comput., 2017,
     13, 1989-2009. DOI: 10.1021/acs.jctc.7b00118
   for GFN0-xTB:
   * P. Pracht, E. Caldeweyher, S. Ehlert, S. Grimme, ChemRxiv, 2019, preprint.
     DOI: 10.26434/chemrxiv.8326202.v1
   for GFN-FF:
   * S. Spicher and S. Grimme, Angew. Chem. Int. Ed., 2020, 59, 15665-15673.
     DOI: 10.1002/anie.202004239
   
   for ALPB and GBSA implicit solvation:
   * S. Ehlert, M. Stahn, S. Spicher, S. Grimme, J. Chem. Theory Comput.,
     2021, 17, 4250-4261. DOI: 10.1021/acs.jctc.1c00471
   
   for ddCOSMO and CPCM-X implicit solvation:
   * M. Stahn, S. Ehlert, S. Grimme, J. Phys. Chem. A,
     2023, XX, XXXX-XXXX. DOI: 10.1021/acs.jpca.3c04382
   
   for DFT-D4:
   * E. Caldeweyher, C. Bannwarth and S. Grimme, J. Chem. Phys., 2017,
     147, 034112. DOI: 10.1063/1.4993215
   * E. Caldeweyher, S. Ehlert, A. Hansen, H. Neugebauer, S. Spicher,
     C. Bannwarth and S. Grimme, J. Chem. Phys., 2019, 150, 154122.
     DOI: 10.1063/1.5090222
   * E. Caldeweyher, J.-M. Mewes, S. Ehlert and S. Grimme, Phys. Chem. Chem. Phys.
     2020, 22, 8499-8512. DOI: 10.1039/D0CP00502A
   
   for sTDA-xTB:
   * S. Grimme and C. Bannwarth, J. Chem. Phys., 2016, 145, 054103.
     DOI: 10.1063/1.4959605
   
   in the mass-spec context:
   * V. Asgeirsson, C. Bauer and S. Grimme, Chem. Sci., 2017, 8, 4879.
     DOI: 10.1039/c7sc00601b
   * J. Koopman and S. Grimme, ACS Omega 2019, 4, 12, 15120-15133.
     DOI: 10.1021/acsomega.9b02011
   
   for metadynamics refer to:
   * S. Grimme, J. Chem. Theory Comput., 2019, 155, 2847-2862
     DOI: 10.1021/acs.jctc.9b00143
   
   for SPH calculations refer to:
   * S. Spicher and S. Grimme, J. Chem. Theory Comput., 2021, 17, 1701-1714
     DOI: 10.1021/acs.jctc.0c01306
   
   for ONIOM refer to:
   * C. Plett, A. Katbashev, S. Ehlert, S. Grimme, M. Bursch,
     Phys. Chem. Chem. Phys., 2023, 25, 17860-17868. DOI: 10.1039/D3CP02178E
   
   for DIPRO refer to:
   * J. Kohn, N. Gildemeister, S. Grimme, D. Fazzi, A. Hansen,
     J. Chem. Phys., 2023, just accepted.
   
   for PTB refer to:
   * S. Grimme, M. Mueller, A. Hansen, J. Chem. Phys., 2023, 158, 124111.
     DOI: 10.1063/5.0137838
   
   with help from (in alphabetical order)
   P. Atkinson, C. Bannwarth, F. Bohle, G. Brandenburg, E. Caldeweyher
   M. Checinski, S. Dohm, S. Ehlert, S. Ehrlich, I. Gerasimov, C. Hölzer
   A. Katbashev, J. Kohn, J. Koopman, C. Lavigne, S. Lehtola, F. März, M. Müller,
   F. Musil, H. Neugebauer, J. Pisarek, C. Plett, P. Pracht, F. Pultar,
   J. Seibert, P. Shushkov, S. Spicher, M. Stahn, M. Steiner, T. Strunk,
   J. Stückrath, T. Rose, and J. Unsleber
   
 * started run on 2026/08/20 at 09:38:16.360     
   ID    Z sym.   atoms
    1    6 C      1, 4-7
    2    7 N      2, 3, 10
    3   16 S      8
    4    8 O      9
    5    1 H      11-19

           -------------------------------------------------
          |                Calculation Setup                |
           -------------------------------------------------

          program call               : /h/399/yunhengzou/micromamba/envs/el-agente/bin/xtb pathway_A_product_raw.xyz --opt --gfn 2 -P 4 --chrg 0 --uhf 0
          coordinate file            : pathway_A_product_raw.xyz
          omp threads                :                     4


           -------------------------------------------------
          |                 G F N 2 - x T B                 |
           -------------------------------------------------

        Reference                      10.1021/acs.jctc.8b01176
      * Hamiltonian:
        H0-scaling (s, p, d)           1.850000    2.230000    2.230000
        zeta-weighting                 0.500000
      * Dispersion:
        s8                             2.700000
        a1                             0.520000
        a2                             5.000000
        s9                             5.000000
      * Repulsion:
        kExp                           1.500000    1.000000
        rExp                           1.000000
      * Coulomb:
        alpha                          2.000000
        third order                    shell-resolved
        anisotropic                    true
        a3                             3.000000
        a5                             4.000000
        cn-shift                       1.200000
        cn-exp                         4.000000
        max-rad                        5.000000


          ...................................................
          :                      SETUP                      :
          :.................................................:
          :  # basis functions                  55          :
          :  # atomic orbitals                  54          :
          :  # shells                           30          :
          :  # electrons                        56          :
          :  max. iterations                   250          :
          :  Hamiltonian                  GFN2-xTB          :
          :  restarted?                      false          :
          :  GBSA solvation                  false          :
          :  PC potential                    false          :
          :  electronic temp.          300.0000000     K    :
          :  accuracy                    1.0000000          :
          :  -> integral cutoff          0.2500000E+02      :
          :  -> integral neglect         0.1000000E-07      :
          :  -> SCF convergence          0.1000000E-05 Eh   :
          :  -> wf. convergence          0.1000000E-03 e    :
          :  Broyden damping             0.4000000          :
          :  net charge                          0          :
          :  unpaired electrons                  0          :
          ...................................................

 iter      E             dE          RMSdq      gap      omega  full diag
   1    -31.5386417 -0.315386E+02  0.462E+00    4.07       0.0  T
   2    -31.6330763 -0.944345E-01  0.303E+00    3.67       1.0  T
   3    -31.6445701 -0.114938E-01  0.155E+00    3.72       1.0  T
   4    -31.6455366 -0.966537E-03  0.566E-01    3.65       1.0  T
   5    -31.6476913 -0.215468E-02  0.216E-01    3.68       1.0  T
   6    -31.6477003 -0.897764E-05  0.653E-02    3.70       1.0  T
   7    -31.6477171 -0.168150E-04  0.383E-02    3.70       1.0  T
   8    -31.6477221 -0.502823E-05  0.229E-02    3.69       1.0  T
   9    -31.6477236 -0.146986E-05  0.721E-03    3.70       3.2  T
  10    -31.6477240 -0.374845E-06  0.327E-03    3.70       7.0  T
  11    -31.6477240 -0.182685E-07  0.162E-03    3.70      14.2  T
  12    -31.6477240 -0.639122E-08  0.363E-04    3.70      63.2  T
  13    -31.6477240 -0.214122E-09  0.144E-04    3.70     159.1  T

   *** convergence criteria satisfied after 13 iterations ***

         #    Occupation            Energy/Eh            Energy/eV
      -------------------------------------------------------------
         1        2.0000           -0.7592484             -20.6602
       ...           ...                  ...                  ...
        22        2.0000           -0.4550601             -12.3828
        23        2.0000           -0.4299611             -11.6998
        24        2.0000           -0.4155397             -11.3074
        25        2.0000           -0.4074787             -11.0881
        26        2.0000           -0.3983340             -10.8392
        27        2.0000           -0.3960090             -10.7760
        28        2.0000           -0.3806477             -10.3580 (HOMO)
        29                         -0.2448408              -6.6625 (LUMO)
        30                         -0.1950140              -5.3066
        31                         -0.1801020              -4.9008
        32                         -0.1441178              -3.9216
        33                         -0.1068046              -2.9063
       ...                                ...                  ...
        54                          0.7698389              20.9484
      -------------------------------------------------------------
                  HL-Gap            0.1358070 Eh            3.6955 eV
             Fermi-level           -0.3127443 Eh           -8.5102 eV

 SCC (total)                   0 d,  0 h,  0 min,  2.848 sec
 SCC setup                      ...        0 min,  0.008 sec (  0.269%)
 Dispersion                     ...        0 min,  0.023 sec (  0.791%)
 classical contributions        ...        0 min,  0.009 sec (  0.313%)
 integral evaluation            ...        0 min,  0.028 sec (  0.975%)
 iterations                     ...        0 min,  2.593 sec ( 91.059%)
 molecular gradient             ...        0 min,  0.188 sec (  6.585%)
 printout                       ...        0 min,  0.000 sec (  0.006%)

         :::::::::::::::::::::::::::::::::::::::::::::::::::::
         ::                     SUMMARY                     ::
         :::::::::::::::::::::::::::::::::::::::::::::::::::::
         :: total energy             -31.329177652986 Eh    ::
         :: gradient norm              0.110790791471 Eh/a0 ::
         :: HOMO-LUMO gap              3.695495431174 eV    ::
         ::.................................................::
         :: SCC energy               -31.647611944058 Eh    ::
         :: -> isotropic ES            0.060822690697 Eh    ::
         :: -> anisotropic ES          0.001797721626 Eh    ::
         :: -> anisotropic XC          0.021165531023 Eh    ::
         :: -> dispersion             -0.017399403998 Eh    ::
         :: repulsion energy           0.318434291072 Eh    ::
         :: add. restraining           0.000000000000 Eh    ::
         :: total charge               0.000000000000 e     ::
         :::::::::::::::::::::::::::::::::::::::::::::::::::::

      ----------------------------------------------------------- 
     |                   =====================                   |
     |                        A N C O P T                        |
     |                   =====================                   |
     |               Approximate Normal Coordinate               |
     |                Rational Function Optimizer                |
      ----------------------------------------------------------- 
      ----------------------------------------------------------- 
     |                   =====================                   |
     |                        A N C O P T                        |
     |                   =====================                   |
     |               Approximate Normal Coordinate               |
     |                Rational Function Optimizer                |
      ----------------------------------------------------------- 

          ...................................................
          :                      SETUP                      :
          :.................................................:
          :   optimization level            normal          :
          :   max. optcycles                   200          :
          :   ANC micro-cycles                  20          :
          :   degrees of freedom                51          :
          :.................................................:
          :   RF solver                   davidson          :
          :   write xtbopt.log                true          :
          :   linear?                        false          :
          :   energy convergence         0.5000000E-05 Eh   :
          :   grad. convergence          0.1000000E-02 Eh/α :
          :   maxmium RF displ.          1.0000000          :
          :   Hlow (freq-cutoff)         0.1000000E-01      :
          :   Hmax (freq-cutoff)         5.0000000          :
          :   S6 in model hess.         20.0000000          :
          ...................................................

generating ANC from exact Hessian ...
Using Lindh-Hessian (1995)
 Shifting diagonal of input Hessian by    7.4492288460345363E-003
 Lowest  eigenvalues of input Hessian
    0.000000    0.000000    0.000000    0.000000    0.000000    0.000000
    0.010000    0.010287    0.012811    0.015338    0.015679    0.017592
    0.020698    0.025928    0.027348    0.040433    0.046268    0.047512
 Highest eigenvalues
    1.560711    1.817416    1.854590    1.999126    2.059576    2.144068


........................................................................
.............................. CYCLE    1 ..............................
........................................................................

 iter      E             dE          RMSdq      gap      omega  full diag
   1    -31.6477240 -0.316477E+02  0.507E-05    3.70       0.0  T
   2    -31.6477240 -0.338574E-11  0.329E-05    3.70     696.3  T
   3    -31.6477240 -0.355271E-13  0.186E-05    3.70    1232.1  T
     SCC iter.                  ...        0 min,  0.531 sec
     gradient                   ...        0 min,  0.155 sec
 * total energy  :   -31.3291777 Eh     change       -0.3784351E-10 Eh
   gradient norm :     0.1107909 Eh/α   predicted     0.0000000E+00 (-100.00%)
   displ. norm   :     0.3308460 α      lambda       -0.1663260E-01
   maximum displ.:     0.1458406 α      in ANC's #8, #13, #3, ...

........................................................................
.............................. CYCLE    2 ..............................
........................................................................

 iter      E             dE          RMSdq      gap      omega  full diag
   1    -31.6787586 -0.316788E+02  0.382E-01    3.84       0.0  T
   2    -31.6790923 -0.333714E-03  0.236E-01    3.92       1.0  T
   3    -31.6791163 -0.239972E-04  0.113E-01    3.91       1.0  T
   4    -31.6791275 -0.111404E-04  0.496E-02    3.92       1.0  T
   5    -31.6791526 -0.251168E-04  0.166E-02    3.92       1.4  T
   6    -31.6791527 -0.100294E-06  0.529E-03    3.92       4.3  T
   7    -31.6791529 -0.185208E-06  0.242E-03    3.92       9.5  T
   8    -31.6791529 -0.201575E-07  0.955E-04    3.92      24.0  T
   9    -31.6791529 -0.844263E-09  0.233E-04    3.92      98.4  T
     SCC iter.                  ...        0 min,  1.048 sec
     gradient                   ...        0 min,  0.237 sec
 * total energy  :   -31.3408568 Eh     change       -0.1167920E-01 Eh
   gradient norm :     0.0617613 Eh/α   predicted    -0.9244994E-02 ( -20.84%)
   displ. norm   :     0.2787193 α      lambda       -0.6376863E-02
   maximum displ.:     0.1136167 α      in ANC's #8, #12, #11, ...

........................................................................
.............................. CYCLE    3 ..............................
........................................................................

 iter      E             dE          RMSdq      gap      omega  full diag
   1    -31.6985143 -0.316985E+02  0.301E-01    3.96       0.0  T
   2    -31.6989679 -0.453681E-03  0.192E-01    4.03       1.0  T
   3    -31.6990216 -0.536747E-04  0.104E-01    4.03       1.0  T
   4    -31.6989986  0.229731E-04  0.518E-02    4.04       1.0  T
   5    -31.6990297 -0.310398E-04  0.112E-02    4.04       2.0  T
   6    -31.6990296  0.399008E-07  0.498E-03    4.04       4.6  T
   7    -31.6990298 -0.212161E-06  0.175E-03    4.03      13.1  T
   8    -31.6990299 -0.911208E-08  0.705E-04    4.03      32.5  T
   9    -31.6990299 -0.179902E-09  0.186E-04    4.03     123.2  T
     SCC iter.                  ...        0 min,  1.769 sec
     gradient                   ...        0 min,  0.145 sec
 * total energy  :   -31.3444716 Eh     change       -0.3614766E-02 Eh
   gradient norm :     0.0155062 Eh/α   predicted    -0.3436132E-02 (  -4.94%)
   displ. norm   :     0.1420026 α      lambda       -0.6984076E-03
   maximum displ.:     0.0795848 α      in ANC's #3, #8, #12, ...

........................................................................
.............................. CYCLE    4 ..............................
........................................................................

 iter      E             dE          RMSdq      gap      omega  full diag
   1    -31.6985276 -0.316985E+02  0.798E-02    4.03       0.0  T
   2    -31.6985467 -0.190541E-04  0.481E-02    4.04       1.0  T
   3    -31.6985475 -0.835203E-06  0.236E-02    4.04       1.0  T
   4    -31.6985476 -0.932387E-07  0.528E-03    4.05       4.3  T
   5    -31.6985477 -0.685935E-07  0.292E-03    4.05       7.9  T
   6    -31.6985477 -0.482451E-07  0.948E-04    4.05      24.2  T
   7    -31.6985477 -0.208581E-08  0.501E-04    4.05      45.8  T
     SCC iter.                  ...        0 min,  1.018 sec
     gradient                   ...        0 min,  0.126 sec
 * total energy  :   -31.3449481 Eh     change       -0.4764885E-03 Eh
   gradient norm :     0.0101269 Eh/α   predicted    -0.3565259E-03 ( -25.18%)
   displ. norm   :     0.1368416 α      lambda       -0.3819300E-03
   maximum displ.:     0.0834073 α      in ANC's #3, #8, #6, ...

........................................................................
.............................. CYCLE    5 ..............................
........................................................................

 iter      E             dE          RMSdq      gap      omega  full diag
   1    -31.6983112 -0.316983E+02  0.751E-02    4.03       0.0  T
   2    -31.6983147 -0.357533E-05  0.389E-02    4.04       1.0  T
   3    -31.6983138  0.889742E-06  0.144E-02    4.04       1.6  T
   4    -31.6983154 -0.155384E-05  0.643E-03    4.04       3.6  T
   5    -31.6983156 -0.230035E-06  0.227E-03    4.04      10.1  T
   6    -31.6983156 -0.378189E-08  0.685E-04    4.04      33.5  T
   7    -31.6983156 -0.224775E-08  0.352E-04    4.04      65.1  T
     SCC iter.                  ...        0 min,  1.033 sec
     gradient                   ...        0 min,  0.178 sec
 * total energy  :   -31.3452020 Eh     change       -0.2539413E-03 Eh
   gradient norm :     0.0070128 Eh/α   predicted    -0.1945563E-03 ( -23.39%)
   displ. norm   :     0.1117812 α      lambda       -0.1572415E-03
   maximum displ.:     0.0623637 α      in ANC's #3, #7, #9, ...

........................................................................
.............................. CYCLE    6 ..............................
........................................................................

 iter      E             dE          RMSdq      gap      omega  full diag
   1    -31.6983091 -0.316983E+02  0.634E-02    4.03       0.0  T
   2    -31.6983115 -0.233253E-05  0.323E-02    4.03       1.0  T
   3    -31.6983109  0.563768E-06  0.131E-02    4.03       1.8  T
   4    -31.6983120 -0.108050E-05  0.578E-03    4.03       4.0  T
   5    -31.6983122 -0.225768E-06  0.207E-03    4.03      11.1  T
   6    -31.6983122 -0.577016E-08  0.638E-04    4.03      35.9  T
   7    -31.6983122 -0.306633E-08  0.343E-04    4.03      67.0  T
     SCC iter.                  ...        0 min,  0.989 sec
     gradient                   ...        0 min,  0.112 sec
 * total energy  :   -31.3453126 Eh     change       -0.1105432E-03 Eh
   gradient norm :     0.0048036 Eh/α   predicted    -0.7960372E-04 ( -27.99%)
   displ. norm   :     0.1011959 α      lambda       -0.9667150E-04
   maximum displ.:     0.0416853 α      in ANC's #9, #3, #7, ...

........................................................................
.............................. CYCLE    7 ..............................
........................................................................

 iter      E             dE          RMSdq      gap      omega  full diag
   1    -31.6988691 -0.316989E+02  0.571E-02    4.03       0.0  T
   2    -31.6988712 -0.208146E-05  0.297E-02    4.03       1.0  T
   3    -31.6988712  0.338393E-07  0.107E-02    4.03       2.1  T
   4    -31.6988713 -0.183453E-06  0.510E-03    4.03       4.5  T
   5    -31.6988715 -0.203554E-06  0.196E-03    4.03      11.7  T
   6    -31.6988715 -0.769924E-08  0.503E-04    4.03      45.6  T
   7    -31.6988715 -0.114616E-08  0.302E-04    4.03      75.9  T
     SCC iter.                  ...        0 min,  1.260 sec
     gradient                   ...        0 min,  0.212 sec
 * total energy  :   -31.3453783 Eh     change       -0.6570163E-04 Eh
   gradient norm :     0.0027339 Eh/α   predicted    -0.4883278E-04 ( -25.67%)
   displ. norm   :     0.0810006 α      lambda       -0.5198111E-04
   maximum displ.:     0.0338268 α      in ANC's #9, #4, #7, ...

........................................................................
.............................. CYCLE    8 ..............................
........................................................................

 iter      E             dE          RMSdq      gap      omega  full diag
   1    -31.6991937 -0.316992E+02  0.426E-02    4.03       0.0  T
   2    -31.6991945 -0.751081E-06  0.221E-02    4.03       1.0  T
   3    -31.6991945 -0.482438E-07  0.667E-03    4.03       3.4  T
   4    -31.6991945 -0.153539E-07  0.305E-03    4.03       7.5  T
   5    -31.6991946 -0.496128E-07  0.130E-03    4.03      17.6  T
   6    -31.6991946 -0.124190E-07  0.387E-04    4.03      59.3  T
   7    -31.6991946  0.170992E-10  0.201E-04    4.03     114.1  T
     SCC iter.                  ...        0 min,  1.298 sec
     gradient                   ...        0 min,  0.134 sec
 * total energy  :   -31.3454157 Eh     change       -0.3736357E-04 Eh
   gradient norm :     0.0023038 Eh/α   predicted    -0.2616177E-04 ( -29.98%)
   displ. norm   :     0.0881038 α      lambda       -0.4534104E-04
   maximum displ.:     0.0490752 α      in ANC's #4, #9, #6, ...

........................................................................
.............................. CYCLE    9 ..............................
........................................................................

 iter      E             dE          RMSdq      gap      omega  full diag
   1    -31.6996042 -0.316996E+02  0.390E-02    4.04       0.0  T
   2    -31.6996046 -0.475297E-06  0.209E-02    4.04       1.1  T
   3    -31.6996047 -0.181616E-07  0.553E-03    4.04       4.1  T
   4    -31.6996047 -0.613214E-07  0.236E-03    4.04       9.7  T
   5    -31.6996047 -0.255985E-07  0.954E-04    4.04      24.0  T
   6    -31.6996047 -0.286207E-08  0.368E-04    4.04      62.4  T
     SCC iter.                  ...        0 min,  0.627 sec
     gradient                   ...        0 min,  0.213 sec
 * total energy  :   -31.3454471 Eh     change       -0.3149607E-04 Eh
   gradient norm :     0.0020822 Eh/α   predicted    -0.2284915E-04 ( -27.45%)
   displ. norm   :     0.1031438 α      lambda       -0.3558743E-04
   maximum displ.:     0.0689441 α      in ANC's #4, #3, #8, ...

........................................................................
.............................. CYCLE   10 ..............................
........................................................................

 iter      E             dE          RMSdq      gap      omega  full diag
   1    -31.6992461 -0.316992E+02  0.390E-02    4.04       0.0  T
   2    -31.6992464 -0.311755E-06  0.214E-02    4.04       1.1  T
   3    -31.6992464 -0.383958E-08  0.506E-03    4.04       4.5  T
   4    -31.6992465 -0.547607E-07  0.259E-03    4.04       8.9  T
   5    -31.6992465 -0.475865E-07  0.729E-04    4.04      31.5  T
   6    -31.6992465 -0.116340E-08  0.490E-04    4.04      46.8  T
     SCC iter.                  ...        0 min,  1.041 sec
     gradient                   ...        0 min,  0.229 sec
 * total energy  :   -31.3454710 Eh     change       -0.2385378E-04 Eh
   gradient norm :     0.0028726 Eh/α   predicted    -0.1798429E-04 ( -24.61%)
   displ. norm   :     0.1041292 α      lambda        0.3740186E-05
   maximum displ.:     0.0695879 α      in ANC's #4, #3, #6, ...

........................................................................
.............................. CYCLE   11 ..............................
........................................................................

 iter      E             dE          RMSdq      gap      omega  full diag
   1    -31.6984868 -0.316985E+02  0.398E-02    4.05       0.0  T
   2    -31.6984871 -0.328362E-06  0.218E-02    4.04       1.1  T
   3    -31.6984871 -0.619535E-08  0.510E-03    4.05       4.5  T
   4    -31.6984871 -0.481841E-07  0.268E-03    4.05       8.6  T
   5    -31.6984872 -0.543711E-07  0.793E-04    4.05      28.9  T
   6    -31.6984872 -0.250668E-08  0.508E-04    4.05      45.2  T
     SCC iter.                  ...        0 min,  0.773 sec
     gradient                   ...        0 min,  0.145 sec
 * total energy  :   -31.3454657 Eh     change        0.5266258E-05 Eh
   gradient norm :     0.0055715 Eh/α   predicted     0.1889486E-05 ( -64.12%)
   displ. norm   :     0.0388905 α      lambda       -0.4633449E-04
   maximum displ.:     0.0186923 α      in ANC's #3, #2, #9, ...

........................................................................
.............................. CYCLE   12 ..............................
........................................................................

 iter      E             dE          RMSdq      gap      omega  full diag
   1    -31.6994541 -0.316995E+02  0.227E-02    4.04       0.0  T
   2    -31.6994543 -0.201371E-06  0.118E-02    4.04       1.9  T
   3    -31.6994543 -0.597684E-08  0.358E-03    4.04       6.4  T
   4    -31.6994543 -0.115909E-07  0.163E-03    4.04      14.0  T
   5    -31.6994544 -0.145622E-07  0.706E-04    4.04      32.5  T
   6    -31.6994544 -0.365215E-08  0.236E-04    4.04      97.1  T
     SCC iter.                  ...        0 min,  0.758 sec
     gradient                   ...        0 min,  0.091 sec
 * total energy  :   -31.3454931 Eh     change       -0.2740026E-04 Eh
   gradient norm :     0.0024571 Eh/α   predicted    -0.2322876E-04 ( -15.22%)
   displ. norm   :     0.0363824 α      lambda       -0.2144038E-04
   maximum displ.:     0.0185848 α      in ANC's #2, #3, #4, ...

........................................................................
.............................. CYCLE   13 ..............................
........................................................................

 iter      E             dE          RMSdq      gap      omega  full diag
   1    -31.6996400 -0.316996E+02  0.174E-02    4.04       0.0  T
   2    -31.6996402 -0.206999E-06  0.905E-03    4.04       2.5  T
   3    -31.6996401  0.245738E-07  0.313E-03    4.04       7.3  T
   4    -31.6996402 -0.609293E-07  0.144E-03    4.04      15.9  T
   5    -31.6996402 -0.352603E-08  0.517E-04    4.04      44.4  T
   6    -31.6996402 -0.128773E-08  0.190E-04    4.04     120.8  T
     SCC iter.                  ...        0 min,  0.720 sec
     gradient                   ...        0 min,  0.172 sec
 * total energy  :   -31.3455101 Eh     change       -0.1698746E-04 Eh
   gradient norm :     0.0015504 Eh/α   predicted    -0.1073779E-04 ( -36.79%)
   displ. norm   :     0.1966107 α      lambda       -0.3802740E-04
   maximum displ.:     0.1246458 α      in ANC's #4, #3, #2, ...

........................................................................
.............................. CYCLE   14 ..............................
........................................................................

 iter      E             dE          RMSdq      gap      omega  full diag
   1    -31.6987900 -0.316988E+02  0.681E-02    4.02       0.0  T
   2    -31.6987918 -0.179572E-05  0.368E-02    4.02       1.0  T
   3    -31.6987914  0.449307E-06  0.122E-02    4.02       1.9  T
   4    -31.6987922 -0.854771E-06  0.618E-03    4.02       3.7  T
   5    -31.6987923 -0.109200E-06  0.160E-03    4.02      14.3  T
   6    -31.6987924 -0.262300E-07  0.846E-04    4.02      27.1  T
   7    -31.6987924 -0.289721E-08  0.437E-04    4.02      52.5  T
     SCC iter.                  ...        0 min,  1.120 sec
     gradient                   ...        0 min,  0.195 sec
 * total energy  :   -31.3455425 Eh     change       -0.3234391E-04 Eh
   gradient norm :     0.0029299 Eh/α   predicted    -0.1934569E-04 ( -40.19%)
   displ. norm   :     0.0682005 α      lambda       -0.1798427E-04
   maximum displ.:     0.0415033 α      in ANC's #4, #3, #2, ...

........................................................................
.............................. CYCLE   15 ..............................
........................................................................

 iter      E             dE          RMSdq      gap      omega  full diag
   1    -31.6988837 -0.316989E+02  0.225E-02    4.02       0.0  T
   2    -31.6988838 -0.141090E-06  0.122E-02    4.02       1.9  T
   3    -31.6988838 -0.682647E-09  0.352E-03    4.02       6.5  T
   4    -31.6988839 -0.111503E-07  0.192E-03    4.02      12.0  T
   5    -31.6988839 -0.283048E-07  0.579E-04    4.02      39.6  T
   6    -31.6988839 -0.912625E-09  0.276E-04    4.02      83.0  T
     SCC iter.                  ...        0 min,  0.639 sec
     gradient                   ...        0 min,  0.219 sec
 * total energy  :   -31.3455582 Eh     change       -0.1573294E-04 Eh
   gradient norm :     0.0025325 Eh/α   predicted    -0.9035060E-05 ( -42.57%)
   displ. norm   :     0.1792428 α      lambda       -0.4768764E-04
   maximum displ.:     0.0997541 α      in ANC's #4, #2, #3, ...

........................................................................
.............................. CYCLE   16 ..............................
........................................................................

 iter      E             dE          RMSdq      gap      omega  full diag
   1    -31.6988422 -0.316988E+02  0.571E-02    4.02       0.0  T
   2    -31.6988432 -0.106745E-05  0.312E-02    4.01       1.0  T
   3    -31.6988433 -0.624044E-07  0.916E-03    4.01       2.5  T
   4    -31.6988433 -0.127243E-07  0.410E-03    4.01       5.6  T
   5    -31.6988434 -0.132666E-06  0.159E-03    4.01      14.4  T
   6    -31.6988434 -0.100744E-07  0.615E-04    4.01      37.3  T
   7    -31.6988434 -0.534612E-10  0.318E-04    4.01      72.2  T
     SCC iter.                  ...        0 min,  1.207 sec
     gradient                   ...        0 min,  0.074 sec
 * total energy  :   -31.3455928 Eh     change       -0.3460524E-04 Eh
   gradient norm :     0.0021860 Eh/α   predicted    -0.2461405E-04 ( -28.87%)
   displ. norm   :     0.1403248 α      lambda       -0.3572415E-04
   maximum displ.:     0.0858578 α      in ANC's #2, #4, #6, ...

........................................................................
.............................. CYCLE   17 ..............................
........................................................................

 iter      E             dE          RMSdq      gap      omega  full diag
   1    -31.6994382 -0.316994E+02  0.417E-02    4.01       0.0  T
   2    -31.6994388 -0.535776E-06  0.230E-02    4.01       1.0  T
   3    -31.6994388 -0.594998E-07  0.572E-03    4.01       4.0  T
   4    -31.6994388 -0.540347E-08  0.210E-03    4.01      10.9  T
   5    -31.6994388 -0.192799E-07  0.946E-04    4.01      24.2  T
   6    -31.6994389 -0.855714E-08  0.361E-04    4.01      63.6  T
     SCC iter.                  ...        0 min,  0.694 sec
     gradient                   ...        0 min,  0.180 sec
 * total energy  :   -31.3456185 Eh     change       -0.2565517E-04 Eh
   gradient norm :     0.0019662 Eh/α   predicted    -0.1821687E-04 ( -28.99%)
   displ. norm   :     0.3736781 α      lambda       -0.3589138E-04
   maximum displ.:     0.1833343 α      in ANC's #2, #4, #6, ...

........................................................................
.............................. CYCLE   18 ..............................
........................................................................

 iter      E             dE          RMSdq      gap      omega  full diag
   1    -31.6955793 -0.316956E+02  0.111E-01    4.01       0.0  T
   2    -31.6955838 -0.451602E-05  0.622E-02    4.01       1.0  T
   3    -31.6955841 -0.286135E-06  0.157E-02    4.01       1.5  T
   4    -31.6955843 -0.148287E-06  0.653E-03    4.01       3.5  T
   5    -31.6955846 -0.310212E-06  0.267E-03    4.01       8.6  T
   6    -31.6955846 -0.499906E-07  0.106E-03    4.01      21.7  T
   7    -31.6955846 -0.121811E-08  0.622E-04    4.01      36.9  T
   8    -31.6955846 -0.135357E-08  0.175E-04    4.01     131.3  T
     SCC iter.                  ...        0 min,  1.293 sec
     gradient                   ...        0 min,  0.196 sec
 * total energy  :   -31.3455728 Eh     change        0.4569555E-04 Eh
   gradient norm :     0.0090221 Eh/α   predicted    -0.1906306E-04 (-141.72%)
   displ. norm   :     0.1046679 α      lambda       -0.1578030E-03
   maximum displ.:     0.0700192 α      in ANC's #4, #3, #6, ...

........................................................................
.............................. CYCLE   19 ..............................
........................................................................

 iter      E             dE          RMSdq      gap      omega  full diag
   1    -31.6991080 -0.316991E+02  0.435E-02    4.01       0.0  T
   2    -31.6991097 -0.165967E-05  0.238E-02    4.01       1.0  T
   3    -31.6991097  0.247779E-07  0.863E-03    4.01       2.7  T
   4    -31.6991098 -0.922475E-07  0.339E-03    4.01       6.8  T
   5    -31.6991099 -0.121647E-06  0.123E-03    4.01      18.6  T
   6    -31.6991099 -0.131525E-08  0.514E-04    4.01      44.6  T
   7    -31.6991099 -0.989871E-09  0.266E-04    4.01      86.4  T
     SCC iter.                  ...        0 min,  0.857 sec
     gradient                   ...        0 min,  0.181 sec
 * total energy  :   -31.3456560 Eh     change       -0.8324305E-04 Eh
   gradient norm :     0.0025292 Eh/α   predicted    -0.7977021E-04 (  -4.17%)
   displ. norm   :     0.0390718 α      lambda       -0.1297356E-04
   maximum displ.:     0.0211771 α      in ANC's #2, #4, #6, ...

........................................................................
.............................. CYCLE   20 ..............................
........................................................................

 iter      E             dE          RMSdq      gap      omega  full diag
   1    -31.6995745 -0.316996E+02  0.141E-02    4.01       0.0  T
   2    -31.6995746 -0.101154E-06  0.744E-03    4.01       3.1  T
   3    -31.6995746 -0.112552E-07  0.188E-03    4.01      12.2  T
   4    -31.6995746 -0.903555E-09  0.818E-04    4.01      28.0  T
   5    -31.6995746 -0.499895E-09  0.344E-04    4.01      66.7  T
     SCC iter.                  ...        0 min,  0.578 sec
     gradient                   ...        0 min,  0.263 sec
 * total energy  :   -31.3456658 Eh     change       -0.9777385E-05 Eh
   gradient norm :     0.0013004 Eh/α   predicted    -0.6498343E-05 ( -33.54%)
   displ. norm   :     0.1709083 α      lambda       -0.1768484E-04
   maximum displ.:     0.0868782 α      in ANC's #2, #4, #3, ...
 * RMSD in coord.:     0.3833990 α      energy gain  -0.1648813E-01 Eh

generating ANC from exact Hessian ...
Using Lindh-Hessian (1995)
 Shifting diagonal of input Hessian by    7.4111363528911395E-003
 Lowest  eigenvalues of input Hessian
    0.000000    0.000000    0.000000    0.000000    0.000000    0.000000
    0.010000    0.010419    0.012963    0.016329    0.016646    0.018775
    0.021929    0.027124    0.031500    0.044274    0.050754    0.052313
 Highest eigenvalues
    1.607772    1.795083    1.897448    2.018914    2.084686    2.617265


........................................................................
.............................. CYCLE   21 ..............................
........................................................................

 iter      E             dE          RMSdq      gap      omega  full diag
   1    -31.6996765 -0.316997E+02  0.500E-02    4.01       0.0  T
   2    -31.6996770 -0.570836E-06  0.275E-02    4.01       1.0  T
   3    -31.6996771 -0.123127E-06  0.603E-03    4.01       3.8  T
   4    -31.6996771  0.695617E-08  0.185E-03    4.01      12.4  T
   5    -31.6996772 -0.211075E-07  0.685E-04    4.01      33.5  T
   6    -31.6996772 -0.276344E-08  0.374E-04    4.01      61.3  T
     SCC iter.                  ...        0 min,  1.117 sec
     gradient                   ...        0 min,  0.002 sec
 * total energy  :   -31.3456822 Eh     change       -0.1642918E-04 Eh
   gradient norm :     0.0016806 Eh/α   predicted     0.0000000E+00 (-100.00%)
   displ. norm   :     0.0236502 α      lambda       -0.2718293E-05
   maximum displ.:     0.0176667 α      in ANC's #5, #3, #2, ...

........................................................................
.............................. CYCLE   22 ..............................
........................................................................

 iter      E             dE          RMSdq      gap      omega  full diag
   1    -31.6996976 -0.316997E+02  0.112E-02    4.01       0.0  T
   2    -31.6996977 -0.793142E-07  0.607E-03    4.01       3.8  T
   3    -31.6996977 -0.314805E-08  0.177E-03    4.01      13.0  T
   4    -31.6996977 -0.574907E-08  0.735E-04    4.01      31.2  T
   5    -31.6996977 -0.117589E-08  0.355E-04    4.01      64.6  T
     SCC iter.                  ...        0 min,  1.299 sec
     gradient                   ...        0 min,  0.233 sec
 * total energy  :   -31.3456916 Eh     change       -0.9337399E-05 Eh
   gradient norm :     0.0005874 Eh/α   predicted    -0.4331646E-05 ( -53.61%)
   displ. norm   :     0.0583860 α      lambda       -0.1047983E-04
   maximum displ.:     0.0474586 α      in ANC's #5, #3, #2, ...

........................................................................
.............................. CYCLE   23 ..............................
........................................................................

 iter      E             dE          RMSdq      gap      omega  full diag
   1    -31.6995759 -0.316996E+02  0.190E-02    4.01       0.0  T
   2    -31.6995761 -0.155317E-06  0.108E-02    4.01       2.1  T
   3    -31.6995761  0.146194E-07  0.306E-03    4.01       7.5  T
   4    -31.6995761 -0.356980E-07  0.118E-03    4.01      19.5  T
   5    -31.6995761 -0.474743E-08  0.585E-04    4.01      39.2  T
   6    -31.6995761 -0.227175E-08  0.135E-04    4.01     169.8  T
     SCC iter.                  ...        0 min,  0.911 sec
     gradient                   ...        0 min,  0.183 sec
 * total energy  :   -31.3457036 Eh     change       -0.1208116E-04 Eh
   gradient norm :     0.0010921 Eh/α   predicted    -0.5251966E-05 ( -56.53%)
   displ. norm   :     0.0816567 α      lambda       -0.1081159E-04
   maximum displ.:     0.0686352 α      in ANC's #5, #3, #9, ...

........................................................................
.............................. CYCLE   24 ..............................
........................................................................

 iter      E             dE          RMSdq      gap      omega  full diag
   1    -31.6994086 -0.316994E+02  0.227E-02    4.01       0.0  T
   2    -31.6994087 -0.107033E-06  0.134E-02    4.01       1.7  T
   3    -31.6994086  0.164210E-07  0.253E-03    4.01       9.1  T
   4    -31.6994087 -0.356224E-07  0.945E-04    4.01      24.3  T
   5    -31.6994087 -0.344656E-08  0.515E-04    4.01      44.5  T
     SCC iter.                  ...        0 min,  0.588 sec
     gradient                   ...        0 min,  0.163 sec
 * total energy  :   -31.3457172 Eh     change       -0.1357926E-04 Eh
   gradient norm :     0.0014052 Eh/α   predicted    -0.5426564E-05 ( -60.04%)
   displ. norm   :     0.0628505 α      lambda       -0.8557974E-05
   maximum displ.:     0.0544002 α      in ANC's #5, #3, #9, ...

........................................................................
.............................. CYCLE   25 ..............................
........................................................................

 iter      E             dE          RMSdq      gap      omega  full diag
   1    -31.6994340 -0.316994E+02  0.165E-02    4.01       0.0  T
   2    -31.6994341 -0.235294E-07  0.984E-03    4.01       2.3  T
   3    -31.6994341 -0.561493E-08  0.761E-04    4.01      30.1  T
   4    -31.6994341 -0.163409E-08  0.355E-04    4.01      64.7  T
     SCC iter.                  ...        0 min,  0.522 sec
     gradient                   ...        0 min,  0.159 sec
 * total energy  :   -31.3457288 Eh     change       -0.1159505E-04 Eh
   gradient norm :     0.0010326 Eh/α   predicted    -0.4327794E-05 ( -62.68%)
   displ. norm   :     0.0630099 α      lambda       -0.8951958E-05
   maximum displ.:     0.0555025 α      in ANC's #5, #6, #9, ...

........................................................................
.............................. CYCLE   26 ..............................
........................................................................

 iter      E             dE          RMSdq      gap      omega  full diag
   1    -31.6995266 -0.316995E+02  0.169E-02    4.01       0.0  T
   2    -31.6995266 -0.344476E-07  0.998E-03    4.01       2.3  T
   3    -31.6995266  0.121262E-07  0.152E-03    4.01      15.1  T
   4    -31.6995266 -0.192333E-07  0.644E-04    4.01      35.6  T
   5    -31.6995266 -0.324157E-08  0.225E-04    4.01     101.8  T
     SCC iter.                  ...        0 min,  0.548 sec
     gradient                   ...        0 min,  0.131 sec
 * total energy  :   -31.3457406 Eh     change       -0.1174905E-04 Eh
   gradient norm :     0.0006993 Eh/α   predicted    -0.4484854E-05 ( -61.83%)
   displ. norm   :     0.0726367 α      lambda       -0.9032583E-05
   maximum displ.:     0.0637744 α      in ANC's #5, #6, #9, ...

........................................................................
.............................. CYCLE   27 ..............................
........................................................................

 iter      E             dE          RMSdq      gap      omega  full diag
   1    -31.6995743 -0.316996E+02  0.190E-02    4.01       0.0  T
   2    -31.6995744 -0.404923E-07  0.113E-02    4.01       2.0  T
   3    -31.6995744  0.168164E-07  0.165E-03    4.01      13.9  T
   4    -31.6995744 -0.240174E-07  0.783E-04    4.01      29.3  T
   5    -31.6995744 -0.539709E-08  0.247E-04    4.01      92.7  T
     SCC iter.                  ...        0 min,  0.470 sec
     gradient                   ...        0 min,  0.078 sec
 * total energy  :   -31.3457522 Eh     change       -0.1164957E-04 Eh
   gradient norm :     0.0009711 Eh/α   predicted    -0.4528153E-05 ( -61.13%)
   displ. norm   :     0.0899707 α      lambda       -0.9537841E-05
   maximum displ.:     0.0783078 α      in ANC's #5, #6, #9, ...

........................................................................
.............................. CYCLE   28 ..............................
........................................................................

 iter      E             dE          RMSdq      gap      omega  full diag
   1    -31.6995680 -0.316996E+02  0.233E-02    4.01       0.0  T
   2    -31.6995681 -0.497009E-07  0.138E-02    4.01       1.7  T
   3    -31.6995681  0.169629E-07  0.179E-03    4.01      12.8  T
   4    -31.6995681 -0.243855E-07  0.103E-03    4.01      22.2  T
   5    -31.6995681 -0.948192E-08  0.280E-04    4.01      82.0  T
   6    -31.6995681 -0.177238E-09  0.122E-04    4.01     187.6  T
     SCC iter.                  ...        0 min,  0.622 sec
     gradient                   ...        0 min,  0.131 sec
 * total energy  :   -31.3457641 Eh     change       -0.1193052E-04 Eh
   gradient norm :     0.0013755 Eh/α   predicted    -0.4786932E-05 ( -59.88%)
   displ. norm   :     0.1451548 α      lambda       -0.1270932E-04
   maximum displ.:     0.1266819 α      in ANC's #5, #6, #9, ...

........................................................................
.............................. CYCLE   29 ..............................
........................................................................

 iter      E             dE          RMSdq      gap      omega  full diag
   1    -31.6993233 -0.316993E+02  0.375E-02    4.02       0.0  T
   2    -31.6993234 -0.136387E-06  0.221E-02    4.02       1.0  T
   3    -31.6993234 -0.120174E-07  0.253E-03    4.02       9.1  T
   4    -31.6993234 -0.815550E-08  0.149E-03    4.02      15.4  T
   5    -31.6993234 -0.172693E-07  0.448E-04    4.02      51.2  T
   6    -31.6993234 -0.109735E-08  0.161E-04    4.02     142.1  T
     SCC iter.                  ...        0 min,  0.530 sec
     gradient                   ...        0 min,  0.066 sec
 * total energy  :   -31.3457766 Eh     change       -0.1246587E-04 Eh
   gradient norm :     0.0021595 Eh/α   predicted    -0.6414704E-05 ( -48.54%)
   displ. norm   :     0.0564420 α      lambda       -0.8777264E-05
   maximum displ.:     0.0496882 α      in ANC's #5, #9, #6, ...

........................................................................
.............................. CYCLE   30 ..............................
........................................................................

 iter      E             dE          RMSdq      gap      omega  full diag
   1    -31.6995684 -0.316996E+02  0.149E-02    4.02       0.0  T
   2    -31.6995684 -0.398791E-07  0.871E-03    4.02       2.6  T
   3    -31.6995684 -0.520333E-08  0.118E-03    4.02      19.5  T
   4    -31.6995684 -0.861810E-09  0.379E-04    4.02      60.6  T
   5    -31.6995684 -0.663327E-10  0.172E-04    4.02     133.4  T
     SCC iter.                  ...        0 min,  0.429 sec
     gradient                   ...        0 min,  0.109 sec
 * total energy  :   -31.3457837 Eh     change       -0.7049204E-05 Eh
   gradient norm :     0.0016348 Eh/α   predicted    -0.4403339E-05 ( -37.53%)
   displ. norm   :     0.1657729 α      lambda       -0.1235447E-04
   maximum displ.:     0.1460290 α      in ANC's #5, #9, #2, ...

........................................................................
.............................. CYCLE   31 ..............................
........................................................................

 iter      E             dE          RMSdq      gap      omega  full diag
   1    -31.6994335 -0.316994E+02  0.435E-02    4.02       0.0  T
   2    -31.6994337 -0.220921E-06  0.254E-02    4.02       1.0  T
   3    -31.6994337 -0.254888E-07  0.351E-03    4.02       6.5  T
   4    -31.6994337 -0.105025E-07  0.161E-03    4.02      14.3  T
   5    -31.6994337 -0.920225E-08  0.659E-04    4.02      34.8  T
   6    -31.6994337 -0.649661E-08  0.199E-04    4.02     115.5  T
     SCC iter.                  ...        0 min,  0.677 sec
     gradient                   ...        0 min,  0.142 sec
 * total energy  :   -31.3457943 Eh     change       -0.1061208E-04 Eh
   gradient norm :     0.0013572 Eh/α   predicted    -0.6254743E-05 ( -41.06%)
   displ. norm   :     0.1678458 α      lambda        0.7953055E-05
   maximum displ.:     0.1478414 α      in ANC's #5, #9, #2, ...

........................................................................
.............................. CYCLE   32 ..............................
........................................................................

 iter      E             dE          RMSdq      gap      omega  full diag
   1    -31.6983482 -0.316983E+02  0.449E-02    4.02       0.0  T
   2    -31.6983486 -0.383626E-06  0.261E-02    4.02       1.0  T
   3    -31.6983487 -0.320255E-07  0.399E-03    4.02       5.7  T
   4    -31.6983487 -0.200009E-07  0.180E-03    4.02      12.8  T
   5    -31.6983487 -0.104037E-07  0.786E-04    4.02      29.2  T
   6    -31.6983487 -0.791400E-08  0.212E-04    4.02     108.4  T
     SCC iter.                  ...        0 min,  0.804 sec
     gradient                   ...        0 min,  0.105 sec
 * total energy  :   -31.3457796 Eh     change        0.1467806E-04 Eh
   gradient norm :     0.0037496 Eh/α   predicted     0.4024794E-05 ( -72.58%)
   displ. norm   :     0.0476058 α      lambda       -0.3532284E-04
   maximum displ.:     0.0393562 α      in ANC's #5, #6, #9, ...

........................................................................
.............................. CYCLE   33 ..............................
........................................................................

 iter      E             dE          RMSdq      gap      omega  full diag
   1    -31.6995951 -0.316996E+02  0.176E-02    4.02       0.0  T
   2    -31.6995954 -0.302295E-06  0.994E-03    4.02       2.3  T
   3    -31.6995954 -0.116630E-07  0.262E-03    4.02       8.8  T
   4    -31.6995954 -0.767613E-08  0.927E-04    4.02      24.8  T
   5    -31.6995954 -0.650068E-08  0.431E-04    4.02      53.3  T
     SCC iter.                  ...        0 min,  0.546 sec
     gradient                   ...        0 min,  0.029 sec
 * total energy  :   -31.3457992 Eh     change       -0.1962848E-04 Eh
   gradient norm :     0.0007175 Eh/α   predicted    -0.1771009E-04 (  -9.77%)
   displ. norm   :     0.0273488 α      lambda       -0.3146482E-05
   maximum displ.:     0.0173016 α      in ANC's #5, #3, #9, ...

........................................................................
.............................. CYCLE   34 ..............................
........................................................................

 iter      E             dE          RMSdq      gap      omega  full diag
   1    -31.6999447 -0.316999E+02  0.903E-03    4.02       0.0  T
   2    -31.6999447 -0.285457E-07  0.525E-03    4.02       4.4  T
   3    -31.6999447 -0.200522E-08  0.985E-04    4.02      23.3  T
   4    -31.6999447 -0.197328E-08  0.472E-04    4.02      48.6  T
     SCC iter.                  ...        0 min,  0.379 sec
     gradient                   ...        0 min,  0.063 sec
 * total energy  :   -31.3458024 Eh     change       -0.3152805E-05 Eh
   gradient norm :     0.0005977 Eh/α   predicted    -0.1576092E-05 ( -50.01%)
   displ. norm   :     0.0271032 α      lambda       -0.2569371E-05
   maximum displ.:     0.0188662 α      in ANC's #3, #1, #9, ...

   *** GEOMETRY OPTIMIZATION CONVERGED AFTER 34 ITERATIONS ***

------------------------------------------------------------------------
 total energy gain   :        -0.0166247 Eh      -10.4322 kcal/mol
 total RMSD          :         0.4946716 a0        0.2618 Å
 total power (kW/mol):        -1.2837701 (step)   -1.1730 (real)
------------------------------------------------------------------------

 ANCopt (total)                0 d,  0 h,  0 min, 37.211 sec
 optimizer setup                ...        0 min,  0.000 sec (  0.000%)
 model hessian                  ...        0 min,  0.007 sec (  0.018%)
 ANC generation                 ...        0 min,  0.001 sec (  0.003%)
 coordinate transformation      ...        0 min,  0.000 sec (  0.001%)
 single point calculation       ...        0 min, 36.805 sec ( 98.909%)
 optimization log               ...        0 min,  0.003 sec (  0.008%)
 hessian update                 ...        0 min,  0.386 sec (  1.036%)
 rational function              ...        0 min,  0.004 sec (  0.010%)

================
 final structure:
================
19
 xtb: 6.7.1 (edcfbbe)
C            2.59662603303268       -0.64845428855077       -0.03068990252425
N            1.18794037349721       -0.91333900914505       -0.02518020237246
N            0.71663629603494       -2.12508438553207       -0.27849929118933
C           -0.59982300780034       -2.03544635943867       -0.19232440902421
C           -1.00520735857662       -0.73058135966876        0.12686430123008
C           -2.37726044745974       -0.19256742595961        0.30785016790320
C            0.18807774728120       -0.03193858230560        0.22274589914212
S            0.53613859708265        1.68814810859383        0.62990460222361
O           -0.35889291868057        2.04724873446573        1.71415740695084
N           -0.23927471666319        2.29354871608443       -0.79806159581773
H            2.90552397632274       -0.19312234896119        0.91135983748397
H            2.86574170717846        0.01760339733543       -0.85346631598020
H            3.10682532665698       -1.60073377470090       -0.16084824005962
H           -1.21194585261886       -2.89981429057454       -0.35491814886955
H           -3.08008994418675       -0.99927767778724        0.50059400520559
H           -2.69284290768627        0.34001138895438       -0.58945732294900
H           -2.39322011958588        0.51058149276716        1.13723394413100
H            0.35847570514527        2.21275767561371       -1.60944819069579
H           -0.50342948897394        3.26045998880971       -0.65781754478830

 Bond Distances (Angstroems)
 ---------------------------
C1-N2=1.4334         C1-H11=1.0910        C1-H12=1.0923        C1-H13=1.0882        N2-C1=1.4334         N2-N3=1.3246         
N2-C7=1.3558         N3-N2=1.3246         N3-C4=1.3223         C4-N3=1.3223         C4-C5=1.4032         C4-H14=1.0716        
C5-C4=1.4032         C5-C6=1.4848         C5-C7=1.3861         C6-C5=1.4848         C6-H15=1.0872        C6-H16=1.0901        
C6-H17=1.0875        C7-N2=1.3558         C7-C5=1.3861         C7-S8=1.8016         S8-C7=1.8016         S8-O9=1.4511         
S8-N10=1.7340        O9-S8=1.4511         N10-S8=1.7340        N10-H18=1.0110       N10-H19=1.0121       H11-C1=1.0910        
H12-C1=1.0923        H13-C1=1.0882        H14-C4=1.0716        H15-C6=1.0872        H16-C6=1.0901        H17-C6=1.0875        
H18-N10=1.0110       H19-N10=1.0121       
 C  H  Rav=1.0868 sigma=0.0065  Rmin=1.0716  Rmax=1.0923     7
 C  C  Rav=1.4247 sigma=0.0431  Rmin=1.3861  Rmax=1.4848     3
 N  H  Rav=1.0116 sigma=0.0005  Rmin=1.0110  Rmax=1.0121     2
 N  C  Rav=1.3705 sigma=0.0465  Rmin=1.3223  Rmax=1.4334     3
 N  N  Rav=1.3246 sigma=0.0000  Rmin=1.3246  Rmax=1.3246     1
 S  C  Rav=1.8016 sigma=0.0000  Rmin=1.8016  Rmax=1.8016     1
 S  N  Rav=1.7340 sigma=0.0000  Rmin=1.7340  Rmax=1.7340     1
 S  O  Rav=1.4511 sigma=0.0000  Rmin=1.4511  Rmax=1.4511     1

 selected bond angles (degree)
 --------------------
H11-C1-N2=110.61               H12-C1-N2=110.96               H12-C1-H11=109.04              H13-C1-N2=107.43               
H13-C1-H11=109.62              H13-C1-H12=109.15              N3-N2-C1=121.20                C7-N2-C1=127.25                
C7-N2-N3=111.55                C4-N3-N2=106.25                C5-C4-N3=111.44                H14-C4-N3=120.27               
H14-C4-C5=128.29               C6-C5-C4=129.17                C7-C5-C4=103.64                C7-C5-C6=127.19                
H15-C6-C5=110.49               H16-C6-C5=110.13               H16-C6-H15=108.74              H17-C6-C5=109.93               
H17-C6-H15=109.58              H17-C6-H16=107.92              C5-C7-N2=107.13                S8-C7-N2=121.30                
S8-C7-C5=131.54                O9-S8-C7=106.62                N10-S8-C7= 93.49               N10-S8-O9=104.66               
H18-N10-S8=111.63              H19-N10-S8=109.64              H19-N10-H18=109.99             

 selected dihedral angles (degree)
 ---------------------------------
N3-N2-C1-H11=234.47           N3-N2-C1-H12=113.32           N3-N2-C1-H13=354.08           C7-N2-C1-H11= 54.41           
C7-N2-C1-H12=293.26           C7-N2-C1-H13=174.02           C4-N3-N2-C1=179.81            C4-N3-N2-C7=359.85            
C5-C4-N3-N2=359.96            H14-C4-N3-N2=180.26           C6-C5-C4-N3=179.48            C6-C5-C4-H14=359.15           
C7-C5-C4-N3=  0.19            C7-C5-C4-H14=179.87           H15-C6-C5-C4= 19.60           H15-C6-C5-C7=198.73           
H16-C6-C5-C4=259.45           H16-C6-C5-C7= 78.58           H17-C6-C5-C4=140.67           H17-C6-C5-C7=319.80           
C5-C7-N2-C1=180.32            C5-C7-N2-N3=  0.27            S8-C7-N2-C1=358.88            S8-C7-N2-N3=178.83            
N2-C7-C5-C4=359.73            N2-C7-C5-C6=180.42            S8-C7-C5-C4=181.38            S8-C7-C5-C6=  2.07            
O9-S8-C7-N2=222.48            O9-S8-C7-C5= 40.63            N10-S8-C7-N2=116.05           N10-S8-C7-C5=294.21           
H18-N10-S8-C7=280.30          H18-N10-S8-O9=172.11          H19-N10-S8-C7=158.16          H19-N10-S8-O9= 49.97          
           -------------------------------------------------
          |                Final Singlepoint                |
           -------------------------------------------------

          ...................................................
          :                      SETUP                      :
          :.................................................:
          :  # basis functions                  55          :
          :  # atomic orbitals                  54          :
          :  # shells                           30          :
          :  # electrons                        56          :
          :  max. iterations                   250          :
          :  Hamiltonian                  GFN2-xTB          :
          :  restarted?                      false          :
          :  GBSA solvation                  false          :
          :  PC potential                    false          :
          :  electronic temp.          300.0000000     K    :
          :  accuracy                    1.0000000          :
          :  -> integral cutoff          0.2500000E+02      :
          :  -> integral neglect         0.1000000E-07      :
          :  -> SCF convergence          0.1000000E-05 Eh   :
          :  -> wf. convergence          0.1000000E-03 e    :
          :  Broyden damping             0.4000000          :
          :  net charge                          0          :
          :  unpaired electrons                  0          :
          ...................................................

 iter      E             dE          RMSdq      gap      omega  full diag
   1    -31.6999447 -0.316999E+02  0.228E-04    4.02       0.0  T
   2    -31.6999447 -0.194298E-09  0.177E-04    4.02     129.5  T
   3    -31.6999447 -0.269818E-09  0.839E-05    4.02     273.5  T

   *** convergence criteria satisfied after 3 iterations ***

         #    Occupation            Energy/Eh            Energy/eV
      -------------------------------------------------------------
         1        2.0000           -0.7627987             -20.7568
       ...           ...                  ...                  ...
        22        2.0000           -0.4546006             -12.3703
        23        2.0000           -0.4352374             -11.8434
        24        2.0000           -0.4234988             -11.5240
        25        2.0000           -0.4042462             -11.0001
        26        2.0000           -0.3946074             -10.7378
        27        2.0000           -0.3902571             -10.6194
        28        2.0000           -0.3830214             -10.4225 (HOMO)
        29                         -0.2352886              -6.4025 (LUMO)
        30                         -0.1978629              -5.3841
        31                         -0.1725237              -4.6946
        32                         -0.1375203              -3.7421
        33                         -0.0617751              -1.6810
       ...                                ...                  ...
        54                          0.9730435              26.4779
      -------------------------------------------------------------
                  HL-Gap            0.1477329 Eh            4.0200 eV
             Fermi-level           -0.3091550 Eh           -8.4125 eV

 SCC (total)                   0 d,  0 h,  0 min,  0.494 sec
 SCC setup                      ...        0 min,  0.001 sec (  0.268%)
 Dispersion                     ...        0 min,  0.000 sec (  0.012%)
 classical contributions        ...        0 min,  0.000 sec (  0.003%)
 integral evaluation            ...        0 min,  0.001 sec (  0.150%)
 iterations                     ...        0 min,  0.436 sec ( 88.220%)
 molecular gradient             ...        0 min,  0.056 sec ( 11.310%)
 printout                       ...        0 min,  0.000 sec (  0.034%)

         :::::::::::::::::::::::::::::::::::::::::::::::::::::
         ::                     SUMMARY                     ::
         :::::::::::::::::::::::::::::::::::::::::::::::::::::
         :: total energy             -31.345802368854 Eh    ::
         :: gradient norm              0.000598116567 Eh/a0 ::
         :: HOMO-LUMO gap              4.020016089478 eV    ::
         ::.................................................::
         :: SCC energy               -31.699829641872 Eh    ::
         :: -> isotropic ES            0.054902614915 Eh    ::
         :: -> anisotropic ES          0.000456422729 Eh    ::
         :: -> anisotropic XC          0.019283519959 Eh    ::
         :: -> dispersion             -0.017619187650 Eh    ::
         :: repulsion energy           0.354027273018 Eh    ::
         :: add. restraining           0.000000000000 Eh    ::
         :: total charge               0.000000000000 e     ::
         :::::::::::::::::::::::::::::::::::::::::::::::::::::

           -------------------------------------------------
          |                Property Printout                |
           -------------------------------------------------

    * Orbital Energies and Occupations

         #    Occupation            Energy/Eh            Energy/eV
      -------------------------------------------------------------
         1        2.0000           -0.7627987             -20.7568
       ...           ...                  ...                  ...
        16        2.0000           -0.5021004             -13.6628
        17        2.0000           -0.4986181             -13.5681
        18        2.0000           -0.4881414             -13.2830
        19        2.0000           -0.4746694             -12.9164
        20        2.0000           -0.4738834             -12.8950
        21        2.0000           -0.4654440             -12.6654
        22        2.0000           -0.4546006             -12.3703
        23        2.0000           -0.4352374             -11.8434
        24        2.0000           -0.4234988             -11.5240
        25        2.0000           -0.4042462             -11.0001
        26        2.0000           -0.3946074             -10.7378
        27        2.0000           -0.3902571             -10.6194
        28        2.0000           -0.3830214             -10.4225 (HOMO)
        29                         -0.2352886              -6.4025 (LUMO)
        30                         -0.1978629              -5.3841
        31                         -0.1725237              -4.6946
        32                         -0.1375203              -3.7421
        33                         -0.0617751              -1.6810
        34                          0.0095798               0.2607
        35                          0.0240534               0.6545
        36                          0.0659635               1.7950
        37                          0.0965686               2.6278
        38                          0.1071004               2.9144
        39                          0.1240166               3.3747
       ...                                ...                  ...
        54                          0.9730435              26.4779
      -------------------------------------------------------------
                  HL-Gap            0.1477329 Eh            4.0200 eV
             Fermi-level           -0.3091550 Eh           -8.4125 eV

     #   Z          covCN         q      C6AA      α(0)
     1   6 C        3.691    -0.072    22.074     6.723
     2   7 N        3.047     0.077    19.893     6.624
     3   7 N        2.004    -0.230    26.818     7.681
     4   6 C        3.128     0.013    27.517     8.589
     5   6 C        3.060    -0.010    28.199     8.708
     6   6 C        3.754    -0.105    22.572     6.775
     7   6 C        3.082    -0.039    28.874     8.809
     8  16 S        2.767     0.486   122.809    18.652
     9   8 O        0.860    -0.482    23.396     6.485
    10   7 N        2.631    -0.380    29.826     8.111
    11   1 H        0.924     0.065     2.137     2.286
    12   1 H        0.924     0.060     2.199     2.319
    13   1 H        0.925     0.093     1.851     2.127
    14   1 H        0.926     0.036     2.501     2.473
    15   1 H        0.925     0.040     2.447     2.446
    16   1 H        0.925     0.050     2.323     2.384
    17   1 H        0.925     0.065     2.143     2.289
    18   1 H        0.861     0.158     1.351     1.821
    19   1 H        0.862     0.175     1.241     1.745

 Mol. C6AA /au·bohr⁶  :       4751.935143
 Mol. C8AA /au·bohr⁸  :     122481.861421
 Mol. α(0) /au        :        107.046971


Wiberg/Mayer (AO) data.
largest (>0.10) Wiberg bond orders for each atom

 ---------------------------------------------------------------------------
     #   Z sym  total        # sym  WBO       # sym  WBO       # sym  WBO
 ---------------------------------------------------------------------------
     1   6 C    3.967 --     2 N    1.003    13 H    0.976    11 H    0.974
                            12 H    0.973
     2   7 N    3.669 --     7 C    1.240     3 N    1.220     1 C    1.003
     3   7 N    2.974 --     4 C    1.486     2 N    1.220     7 C    0.154
     4   6 C    3.976 --     3 N    1.486     5 C    1.352    14 H    0.968
     5   6 C    3.982 --     7 C    1.438     4 C    1.352     6 C    1.034
     6   6 C    3.995 --     5 C    1.034    15 H    0.984    17 H    0.974
                            16 H    0.967
     7   6 C    3.930 --     5 C    1.438     2 N    1.240     8 S    0.942
                             3 N    0.154
     8  16 S    3.977 --     9 O    1.859    10 N    1.085     7 C    0.942
     9   8 O    2.037 --     8 S    1.859
    10   7 N    3.108 --     8 S    1.085    18 H    0.958    19 H    0.948
    11   1 H    0.996 --     1 C    0.974
    12   1 H    0.996 --     1 C    0.973
    13   1 H    0.991 --     1 C    0.976
    14   1 H    0.998 --     4 C    0.968
    15   1 H    0.998 --     6 C    0.984
    16   1 H    0.997 --     6 C    0.967
    17   1 H    0.996 --     6 C    0.974
    18   1 H    0.975 --    10 N    0.958
    19   1 H    0.968 --    10 N    0.948
 ---------------------------------------------------------------------------

Topologies differ in total number of bonds
Writing topology from bond orders to xtbtopo.mol

molecular dipole:
                 x           y           z       tot (Debye)
 q only:        1.269       0.174      -0.986
   full:        0.977       0.572      -1.116       4.040
molecular quadrupole (traceless):
                xx          xy          yy          xz          yz          zz
 q only:        9.655       4.386      -3.639       1.709      -7.947      -6.016
  q+dip:        8.537       6.186      -2.388       1.064     -10.142      -6.149
   full:        7.965       5.948      -2.804       1.183     -10.650      -5.161

           -------------------------------------------------
          |                Geometry Summary                 |
           -------------------------------------------------

      molecular mass/u    :      159.2094482
   center of mass at/Å    :        0.1239908       0.2097760       0.2243550
  moments of inertia/u·Å² :        0.3070716E+03   0.4647313E+03   0.6562321E+03
rotational constants/cm⁻¹ :        0.5489805E-01   0.3627393E-01   0.2568852E-01

 * 18 selected distances

     #   Z          #   Z                                           value/Å
     1   6 C        2   7 N                                       1.4333841
     2   7 N        3   7 N                                       1.3246227
     3   7 N        4   6 C                                       1.3223186
     4   6 C        5   6 C                                       1.4031717
     5   6 C        6   6 C                                       1.4848384
     2   7 N        7   6 C                                       1.3557506
     5   6 C        7   6 C                                       1.3860825
     8  16 S        9   8 O                                       1.4510821
     8  16 S       10   7 N                                       1.7340311 (max)
     1   6 C       11   1 H                                       1.0909643
     1   6 C       12   1 H                                       1.0922533
     1   6 C       13   1 H                                       1.0881548
     4   6 C       14   1 H                                       1.0715705
     6   6 C       15   1 H                                       1.0871528
     6   6 C       16   1 H                                       1.0901346
     6   6 C       17   1 H                                       1.0874515
    10   7 N       18   1 H                                       1.0110297 (min)
    10   7 N       19   1 H                                       1.0121086

 * 7 distinct bonds (by element types)

   Z      Z             #   av. dist./Å        max./Å        min./Å
   1 H    6 C           7     1.0868117     1.0922533     1.0715705
   6 C    6 C           3     1.4246975     1.4848384     1.3860825
   1 H    7 N           2     1.0115692     1.0121086     1.0110297
   6 C    7 N           3     1.3704844     1.4333841     1.3223186
   7 N    7 N           1     1.3246227     1.3246227     1.3246227
   7 N   16 S           1     1.7340311     1.7340311     1.7340311
   8 O   16 S           1     1.4510821     1.4510821     1.4510821


optimized geometry written to: xtbopt.xyz


           -------------------------------------------------
          | TOTAL ENERGY              -31.345802368854 Eh   |
          | GRADIENT NORM               0.000598116567 Eh/α |
          | HOMO-LUMO GAP               4.020016089478 eV   |
           -------------------------------------------------

------------------------------------------------------------------------
 * finished run on 2026/08/20 at 09:38:57.098     
------------------------------------------------------------------------
 total:
 * wall-time:     0 d,  0 h,  0 min, 40.738 sec
 *  cpu-time:     0 d,  0 h,  2 min, 45.037 sec
 * ratio c/w:     4.051 speedup
 SCF:
 * wall-time:     0 d,  0 h,  0 min,  2.848 sec
 *  cpu-time:     0 d,  0 h,  0 min, 10.163 sec
 * ratio c/w:     3.569 speedup
 ANC optimizer:
 * wall-time:     0 d,  0 h,  0 min, 37.714 sec
 *  cpu-time:     0 d,  0 h,  2 min, 34.231 sec
 * ratio c/w:     4.090 speedup

