19
 energy: -31.345091303123 gnorm: 0.000298069006 xtb: 6.7.1 (edcfbbe)
N           -0.39192477790182        1.20668353210732       -0.47586861053934
N           -1.50217240426028        0.58559913384685       -0.10541995527222
C           -2.74080297996293        1.29915028939243        0.00949247382989
C           -1.28227747197926       -0.72676607172529        0.12329100293398
C            0.05566550516145       -0.97430682130650       -0.11448304046006
C            0.79348959994208       -2.25892441554168        0.01646272241677
C            0.56460518768754        0.28621364495000       -0.48618340933602
S            2.22840884394634        0.81467563403054       -0.99990750037307
O            3.00353185759917       -0.41094384488211       -1.09788446194399
N            2.70719819626899        1.53987419674923        0.48664987011621
H           -3.49468907144796        0.86552119200138       -0.64998214128502
H           -2.55596477094079        2.33121880754486       -0.28106425423272
H           -3.10869677924836        1.27084286138334        1.03728199412884
H           -2.07108258199061       -1.38503841488905        0.42752228997279
H            0.17588888192029       -3.08803054588260       -0.32317003699157
H            1.05925942632986       -2.43920326893829        1.05893398526216
H            1.70905939491931       -2.22068502402853       -0.56685834607551
H            2.65535969769461        0.91235785678470        1.27829759228455
H            2.19514424626186        2.39176125840442        0.66288782556493
