16
 energy: -28.170445504609 gnorm: 0.000893342412 xtb: 6.7.1 (edcfbbe)
N           -0.41069425488645       -1.52355213749512       -1.12749618451751
N           -1.66154371321940       -1.47836315501401       -0.68683623921995
C           -1.91059658049096       -0.35445306412327        0.02100556037068
C           -0.74250489438591        0.37871619927867        0.04388512886065
C           -0.47905350127391        1.68226241698530        0.70953551992570
C            0.16471805637665       -0.41112528010154       -0.69677199643337
S            1.90914144031178       -0.12215723950697       -1.13627052744038
O            2.10455213414307        1.30757213557133       -0.96571428614455
N            2.61308859246182       -0.83897395881957        0.26029994401466
H           -2.30002766674051       -2.22718528945044       -0.90468749982822
H           -2.87270456177278       -0.15195009158312        0.44596596567415
H           -0.21486292860844        1.52861975842878        1.75705615020232
H            0.34845656800674        2.18663891079811        0.21779365805734
H           -1.36444979642016        2.31324876514775        0.67336243118669
H            2.53253641055096       -1.84520300658203        0.25714611580956
H            2.28394569594751       -0.44409496353448        1.13172425948250
