16

N     -0.651791   -1.599649    0.119940
N     -1.883211   -1.218000    0.422768
C     -1.987467    0.119714    0.316240
C     -0.759415    0.620453   -0.059719
C     -0.417702    2.041969   -0.366441
C      0.049839   -0.491160   -0.183659
S      1.753931   -0.500560   -0.681204
O      1.784257   -1.482680   -1.844182
N      2.562407   -1.351669    0.616412
H     -2.650255   -1.872553    0.692311
H     -2.894009    0.684361    0.491072
H     -1.170768    2.723448    0.082302
H     -0.402092    2.189806   -1.466211
H      0.580709    2.289021    0.051135
H      2.514992   -0.734237    1.457611
H      3.570575   -1.418265    0.351625
