15

N      0.743130    1.204131   -0.796575
N      1.172075    0.146371   -0.124602
C      2.578058   -0.156803    0.103195
C      0.128124   -0.548132    0.364233
C     -1.024520    0.100632   -0.021065
C     -2.430195   -0.341023    0.215625
C     -0.604248    1.189919   -0.760122
H      2.881355    0.217863    1.103059
H      3.203767    0.331087   -0.673924
H      2.743380   -1.254185    0.056332
H      0.200996   -1.455104    0.951112
H     -2.751110   -1.011121   -0.608732
H     -3.104339    0.540344    0.253988
H     -2.499923   -0.887687    1.179516
H     -1.236553    1.923707   -1.242040
