16

N      0.145813    1.833810    0.899746
N     -0.989029    2.305267    0.407701
C     -1.619965    1.294025   -0.222402
C     -0.851418    0.148847   -0.133396
C     -1.236040   -1.218285   -0.601083
C      0.258324    0.529237    0.598436
S      1.630907   -0.483990    1.112671
O      1.016773   -1.839393    1.435723
N      2.561807   -0.760865   -0.345701
H      0.830682    2.402863    1.444639
H     -2.585971    1.383260   -0.701431
H     -2.027914   -1.148237   -1.376251
H     -0.361116   -1.738190   -1.039757
H     -1.621852   -1.807769    0.256323
H      1.902888   -1.065409   -1.095623
H      2.946110    0.164828   -0.639595
