15

C      2.551464    0.281286   -0.304197
N      1.180388    0.042971    0.124699
N      0.852981   -0.494249    1.290289
C     -0.489474   -0.611858    1.320929
C     -1.010232   -0.154577    0.125487
C     -2.451133   -0.034254   -0.243754
C      0.075980    0.261874   -0.612519
H      2.891804   -0.559581   -0.943899
H      2.610839    1.228908   -0.880625
H      3.219015    0.359849    0.579920
H     -1.049842   -1.002897    2.159722
H     -2.836798    0.952091    0.087866
H     -3.037708   -0.839763    0.245978
H     -2.570452   -0.122472   -1.344106
H      0.063169    0.692671   -1.605791
