39

N      3.740533   -0.042017    2.180811
N      2.940743   -0.741934    1.390106
C      2.357487   -2.021863    1.775401
C      2.694208   -0.040973    0.263355
S      1.606516   -0.540949   -1.057511
O      2.254469   -1.793708   -1.629794
O      0.212989   -1.114580   -0.262612
Si    -1.041135    0.026709   -0.574165
C     -0.518341    1.742710   -0.025897
C     -1.423364    0.070910   -2.408543
C     -2.571765   -0.530224    0.406413
C     -2.951591   -1.958771   -0.020241
C     -3.752356    0.417952    0.134097
C     -2.237446   -0.518688    1.908166
C      3.396211    1.144995    0.328378
C      3.375961    2.283696   -0.639008
C      4.034301    1.114781    1.553483
H      2.377572   -2.727223    0.919021
H      2.938102   -2.468729    2.610003
H      1.310022   -1.869188    2.109276
H      0.279170    2.118249   -0.697479
H     -0.134032    1.702060    1.013687
H     -1.381265    2.436039   -0.078120
H     -0.530565    0.419731   -2.966374
H     -1.697971   -0.944731   -2.758416
H     -2.261854    0.770400   -2.600139
H     -3.829023   -2.318494    0.559472
H     -2.108710   -2.661145    0.157567
H     -3.216527   -1.992440   -1.098479
H     -3.508163    1.456161    0.442351
H     -4.017769    0.421375   -0.944166
H     -4.648965    0.094316    0.705635
H     -3.107107   -0.870622    2.504087
H     -1.981734    0.507420    2.248574
H     -1.375824   -1.186424    2.125576
H      2.591088    3.008936   -0.341048
H      3.167277    1.916775   -1.665479
H      4.360933    2.795807   -0.639007
H      4.657924    1.893682    1.971634
