36

N      4.277005   -0.645144    1.547624
N      3.347571   -1.334634    0.904349
C      2.714330   -0.527174    0.037037
S      1.353121   -1.030060   -0.985965
O      1.906552   -2.198361   -1.789720
O      0.278511   -1.756809    0.118191
Si    -1.310223   -1.195434   -0.261913
C     -1.706837   -1.439120   -2.079018
C     -2.486705   -2.296506    0.688112
C     -1.565654    0.622052    0.271489
C     -3.059551    0.876710    0.542554
C     -0.761812    0.888234    1.555484
C     -1.095648    1.578070   -0.839696
C      3.270111    0.731564    0.116230
C      2.835884    1.977085   -0.584348
C      4.245667    0.622837    1.088495
H      3.142888   -2.344447    1.072105
H     -1.040150   -0.813956   -2.706903
H     -2.761293   -1.150203   -2.266039
H     -1.565523   -2.506612   -2.345063
H     -3.533614   -2.058977    0.409067
H     -2.276149   -3.356892    0.439900
H     -2.345029   -2.139243    1.776964
H     -3.668912    0.629072   -0.353402
H     -3.234104    1.944681    0.796548
H     -3.419875    0.265027    1.396728
H      0.325342    0.748451    1.377303
H     -1.076130    0.196372    2.366456
H     -0.920638    1.930585    1.906902
H     -1.212627    2.635759   -0.518890
H     -1.694594    1.434035   -1.763998
H     -0.028755    1.416069   -1.085315
H      2.487243    1.737049   -1.610418
H      2.010743    2.452985   -0.015040
H      3.685048    2.688665   -0.655628
H      4.883807    1.418273    1.449819
