36

N      4.329717    0.710853   -1.279961
N      3.521873   -0.278006   -0.929355
C      2.918466    0.082997    0.218930
S      1.702880   -0.907068    1.049383
O      2.392226   -2.247872    1.259168
O      0.547117   -1.218042   -0.162922
Si    -0.943251   -0.555123    0.397685
C     -1.496377   -1.449968    1.949222
C     -0.742844    1.267648    0.793706
C     -2.227811   -0.782345   -0.985754
C     -3.603754   -0.272705   -0.522744
C     -1.776583    0.008855   -2.225747
C     -2.326971   -2.275926   -1.341734
C      3.364076    1.331628    0.606670
C      2.894873    2.163296    1.755582
C      4.251985    1.707019   -0.378451
H      4.920623    0.708273   -2.140281
H     -0.748905   -1.297536    2.754125
H     -1.592015   -2.534870    1.741490
H     -2.473073   -1.048148    2.286890
H     -0.105659    1.383813    1.693377
H     -1.732973    1.720970    0.999292
H     -0.265866    1.785576   -0.063146
H     -3.957063   -0.836337    0.366400
H     -3.562097    0.806425   -0.265120
H     -4.356518   -0.402159   -1.330155
H     -1.723329    1.096123   -2.004163
H     -2.493625   -0.135298   -3.062550
H     -0.774264   -0.330103   -2.566379
H     -1.340867   -2.670214   -1.669291
H     -2.670238   -2.869040   -0.467544
H     -3.053218   -2.432589   -2.168325
H      2.040990    2.793248    1.431615
H      2.573848    1.513647    2.596224
H      3.717485    2.819981    2.108100
H      4.791142    2.642998   -0.444237
