39

C      4.849260   -1.643137    1.316692
N      3.958112   -0.675272    0.692919
N      3.082876    0.058431    1.362988
C      2.377928    0.763393    0.458106
S      1.032359    1.839036    0.892188
O      1.483801    3.213577    0.419112
O     -0.208851    1.411976   -0.195055
Si    -1.317185    0.420647    0.679042
C     -2.056655    1.384329    2.107191
C     -0.441950   -1.092805    1.360500
C     -2.682289   -0.110565   -0.533251
C     -3.720566   -0.988705    0.186334
C     -3.372474    1.143676   -1.096736
C     -2.047829   -0.905104   -1.688013
C      2.816677    0.455183   -0.818486
C      2.239221    0.897575   -2.123704
C      3.811167   -0.481458   -0.631805
H      5.805899   -1.698608    0.754915
H      5.067573   -1.339386    2.362350
H      4.366997   -2.642898    1.320545
H     -2.814321    0.763506    2.626307
H     -2.531685    2.311305    1.727103
H     -1.258553    1.653056    2.828772
H      0.099679   -1.610628    0.542887
H      0.283192   -0.785518    2.141071
H     -1.180615   -1.783322    1.814243
H     -3.250093   -1.908660    0.592536
H     -4.521760   -1.298239   -0.519061
H     -4.197115   -0.435137    1.022687
H     -2.637962    1.801394   -1.609866
H     -3.859693    1.725444   -0.285521
H     -4.155742    0.860308   -1.832639
H     -1.284619   -0.292979   -2.215345
H     -1.559095   -1.828843   -1.311392
H     -2.822063   -1.204247   -2.427178
H      1.965139    1.971734   -2.075800
H      1.334286    0.296526   -2.350423
H      2.981825    0.757145   -2.937004
H      4.365125   -1.002732   -1.402339
