17
Properties=species:S:1:pos:R:3 energy:=T -27.872417233846=T gnorm:=T 0.000960844434=T xtb:=T 6.7.1=T (edcfbbe)=T pbc="F F F"
C       -2.38160222      -1.23274922      -0.43510371
C       -1.20765601      -0.43309907      -0.00724862
C       -1.04995329       0.89197046      -0.15655566
C        0.15624962       1.55901183       0.18218462
N        1.26974493       0.89464629       0.40980153
N        0.18916121      -0.41299357       0.24750113
C        1.32195541       1.59751729       0.30817871
S        1.22729879      -3.14185074       2.48497506
O        0.91881068      -2.80578629       3.87889013
H       -2.85394973      -1.68806953       0.43515232
H       -2.06250905      -2.04038712      -1.09359974
H       -3.11422064      -0.61878094      -0.95490013
H       -1.84274031       1.50253434      -0.57168783
H        0.21012116       2.63420616       0.16257539
H        1.82739910       1.61105926      -0.65825262
H        1.95357398       1.07222292       1.02188484
H        1.14503603       2.61717051       0.64254143
