15
 energy: -20.622640541269 gnorm: 0.000542523958 xtb: 6.7.1 (edcfbbe)
C           -2.40941582295932       -0.52586798724777       -0.27842239230695
C           -1.03526286978827       -0.03504047585363        0.01876179499400
C           -0.66591093898689        1.10062009667948        0.75884702299711
N            0.64597861179979        1.23545429595916        0.80517731127327
N            1.14535655650143        0.21814732370588        0.11421598360883
C            2.56201956779682        0.06307598592166       -0.03993963902625
C            0.17001745668459       -0.57396068116614       -0.37914466803251
H           -2.86425358075222        0.06986766895321       -1.07069912145757
H           -3.04074113541667       -0.44793070571538        0.60474004680368
H           -2.38109539925544       -1.56361041045077       -0.60274467840853
H           -1.30041789298551        1.80952159808290        1.25238859288632
H            2.84469959566307        0.11618744305282       -1.09324107923638
H            3.04341106727578        0.87320339139261        0.50346091598103
H            2.89295347851073       -0.89377919508101        0.36787825006971
H            0.39266130591203       -1.44588634823323       -0.96127834014568
