      -----------------------------------------------------------      
     |                   =====================                   |     
     |                           x T B                           |     
     |                   =====================                   |     
     |                         S. Grimme                         |     
     |          Mulliken Center for Theoretical Chemistry        |     
     |                    University of Bonn                     |     
      -----------------------------------------------------------      

   * xtb version 6.7.1 (edcfbbe) compiled by 'conda@3ef47c1a292c' on 2024-11-25

   xtb is free software: you can redistribute it and/or modify it under
   the terms of the GNU Lesser General Public License as published by
   the Free Software Foundation, either version 3 of the License, or
   (at your option) any later version.
   
   xtb is distributed in the hope that it will be useful,
   but WITHOUT ANY WARRANTY; without even the implied warranty of
   MERCHANTABILITY or FITNESS FOR A PARTICULAR PURPOSE.  See the
   GNU Lesser General Public License for more details.
   
   Cite this work as:
   * C. Bannwarth, E. Caldeweyher, S. Ehlert, A. Hansen, P. Pracht,
     J. Seibert, S. Spicher, S. Grimme, WIREs Comput. Mol. Sci., 2020, 11,
     e01493. DOI: 10.1002/wcms.1493
   
   for GFN2-xTB:
   * C. Bannwarth, S. Ehlert and S. Grimme., J. Chem. Theory Comput., 2019,
     15, 1652-1671. DOI: 10.1021/acs.jctc.8b01176
   for GFN1-xTB:
   * S. Grimme, C. Bannwarth, P. Shushkov, J. Chem. Theory Comput., 2017,
     13, 1989-2009. DOI: 10.1021/acs.jctc.7b00118
   for GFN0-xTB:
   * P. Pracht, E. Caldeweyher, S. Ehlert, S. Grimme, ChemRxiv, 2019, preprint.
     DOI: 10.26434/chemrxiv.8326202.v1
   for GFN-FF:
   * S. Spicher and S. Grimme, Angew. Chem. Int. Ed., 2020, 59, 15665-15673.
     DOI: 10.1002/anie.202004239
   
   for ALPB and GBSA implicit solvation:
   * S. Ehlert, M. Stahn, S. Spicher, S. Grimme, J. Chem. Theory Comput.,
     2021, 17, 4250-4261. DOI: 10.1021/acs.jctc.1c00471
   
   for ddCOSMO and CPCM-X implicit solvation:
   * M. Stahn, S. Ehlert, S. Grimme, J. Phys. Chem. A,
     2023, XX, XXXX-XXXX. DOI: 10.1021/acs.jpca.3c04382
   
   for DFT-D4:
   * E. Caldeweyher, C. Bannwarth and S. Grimme, J. Chem. Phys., 2017,
     147, 034112. DOI: 10.1063/1.4993215
   * E. Caldeweyher, S. Ehlert, A. Hansen, H. Neugebauer, S. Spicher,
     C. Bannwarth and S. Grimme, J. Chem. Phys., 2019, 150, 154122.
     DOI: 10.1063/1.5090222
   * E. Caldeweyher, J.-M. Mewes, S. Ehlert and S. Grimme, Phys. Chem. Chem. Phys.
     2020, 22, 8499-8512. DOI: 10.1039/D0CP00502A
   
   for sTDA-xTB:
   * S. Grimme and C. Bannwarth, J. Chem. Phys., 2016, 145, 054103.
     DOI: 10.1063/1.4959605
   
   in the mass-spec context:
   * V. Asgeirsson, C. Bauer and S. Grimme, Chem. Sci., 2017, 8, 4879.
     DOI: 10.1039/c7sc00601b
   * J. Koopman and S. Grimme, ACS Omega 2019, 4, 12, 15120-15133.
     DOI: 10.1021/acsomega.9b02011
   
   for metadynamics refer to:
   * S. Grimme, J. Chem. Theory Comput., 2019, 155, 2847-2862
     DOI: 10.1021/acs.jctc.9b00143
   
   for SPH calculations refer to:
   * S. Spicher and S. Grimme, J. Chem. Theory Comput., 2021, 17, 1701-1714
     DOI: 10.1021/acs.jctc.0c01306
   
   for ONIOM refer to:
   * C. Plett, A. Katbashev, S. Ehlert, S. Grimme, M. Bursch,
     Phys. Chem. Chem. Phys., 2023, 25, 17860-17868. DOI: 10.1039/D3CP02178E
   
   for DIPRO refer to:
   * J. Kohn, N. Gildemeister, S. Grimme, D. Fazzi, A. Hansen,
     J. Chem. Phys., 2023, just accepted.
   
   for PTB refer to:
   * S. Grimme, M. Mueller, A. Hansen, J. Chem. Phys., 2023, 158, 124111.
     DOI: 10.1063/5.0137838
   
   with help from (in alphabetical order)
   P. Atkinson, C. Bannwarth, F. Bohle, G. Brandenburg, E. Caldeweyher
   M. Checinski, S. Dohm, S. Ehlert, S. Ehrlich, I. Gerasimov, C. Hölzer
   A. Katbashev, J. Kohn, J. Koopman, C. Lavigne, S. Lehtola, F. März, M. Müller,
   F. Musil, H. Neugebauer, J. Pisarek, C. Plett, P. Pracht, F. Pultar,
   J. Seibert, P. Shushkov, S. Spicher, M. Stahn, M. Steiner, T. Strunk,
   J. Stückrath, T. Rose, and J. Unsleber
   
 * started run on 2026/08/20 at 02:54:29.267     
   ID    Z sym.   atoms
    1    6 C      1-3, 6, 7
    2    7 N      4, 5
    3    1 H      8-15

           -------------------------------------------------
          |                Calculation Setup                |
           -------------------------------------------------

          program call               : xtb pyrazole.xtbopt.xyz --gfn 2 --namespace py_sp
          calculation namespace      : py_sp
          coordinate file            : pyrazole.xtbopt.xyz
          omp threads                :                    16


           -------------------------------------------------
          |                 G F N 2 - x T B                 |
           -------------------------------------------------

        Reference                      10.1021/acs.jctc.8b01176
      * Hamiltonian:
        H0-scaling (s, p, d)           1.850000    2.230000    2.230000
        zeta-weighting                 0.500000
      * Dispersion:
        s8                             2.700000
        a1                             0.520000
        a2                             5.000000
        s9                             5.000000
      * Repulsion:
        kExp                           1.500000    1.000000
        rExp                           1.000000
      * Coulomb:
        alpha                          2.000000
        third order                    shell-resolved
        anisotropic                    true
        a3                             3.000000
        a5                             4.000000
        cn-shift                       1.200000
        cn-exp                         4.000000
        max-rad                        5.000000


          ...................................................
          :                      SETUP                      :
          :.................................................:
          :  # basis functions                  36          :
          :  # atomic orbitals                  36          :
          :  # shells                           22          :
          :  # electrons                        38          :
          :  max. iterations                   250          :
          :  Hamiltonian                  GFN2-xTB          :
          :  restarted?                      false          :
          :  GBSA solvation                  false          :
          :  PC potential                    false          :
          :  electronic temp.          300.0000000     K    :
          :  accuracy                    1.0000000          :
          :  -> integral cutoff          0.2500000E+02      :
          :  -> integral neglect         0.1000000E-07      :
          :  -> SCF convergence          0.1000000E-05 Eh   :
          :  -> wf. convergence          0.1000000E-03 e    :
          :  Broyden damping             0.4000000          :
          :  net charge                          0          :
          :  unpaired electrons                  0          :
          ...................................................

 iter      E             dE          RMSdq      gap      omega  full diag
   1    -20.8696465 -0.208696E+02  0.299E+00    5.15       0.0  T
   2    -20.9171953 -0.475487E-01  0.229E+00    4.75       1.0  T
   3    -20.9262812 -0.908598E-02  0.126E+00    4.91       1.0  T
   4    -20.9263911 -0.109822E-03  0.344E-01    4.78       1.0  T
   5    -20.9271266 -0.735557E-03  0.935E-02    4.85       1.0  T
   6    -20.9271414 -0.147490E-04  0.423E-02    4.85       1.0  T
   7    -20.9271525 -0.111170E-04  0.213E-02    4.85       1.2  T
   8    -20.9271531 -0.640696E-06  0.472E-03    4.85       5.5  T
   9    -20.9271533 -0.206724E-06  0.152E-03    4.85      17.0  T
  10    -20.9271533 -0.715154E-08  0.662E-04    4.85      39.0  T
  11    -20.9271533 -0.501572E-09  0.180E-04    4.85     143.1  T

   *** convergence criteria satisfied after 11 iterations ***

         #    Occupation            Energy/Eh            Energy/eV
      -------------------------------------------------------------
         1        2.0000           -0.6818585             -18.5543
       ...           ...                  ...                  ...
        13        2.0000           -0.4728809             -12.8677
        14        2.0000           -0.4666596             -12.6985
        15        2.0000           -0.4596728             -12.5083
        16        2.0000           -0.4407718             -11.9940
        17        2.0000           -0.3906847             -10.6311
        18        2.0000           -0.3808912             -10.3646
        19        2.0000           -0.3789902             -10.3128 (HOMO)
        20                         -0.2007014              -5.4614 (LUMO)
        21                         -0.1464524              -3.9852
        22                          0.0146185               0.3978
        23                          0.1095798               2.9818
        24                          0.1260989               3.4313
       ...                                ...                  ...
        36                          0.6651764              18.1004
      -------------------------------------------------------------
                  HL-Gap            0.1782888 Eh            4.8515 eV
             Fermi-level           -0.2898458 Eh           -7.8871 eV

 SCC (total)                   0 d,  0 h,  0 min,  0.884 sec
 SCC setup                      ...        0 min,  0.000 sec (  0.011%)
 Dispersion                     ...        0 min,  0.000 sec (  0.013%)
 classical contributions        ...        0 min,  0.002 sec (  0.223%)
 integral evaluation            ...        0 min,  0.000 sec (  0.044%)
 iterations                     ...        0 min,  0.814 sec ( 92.073%)
 molecular gradient             ...        0 min,  0.067 sec (  7.618%)
 printout                       ...        0 min,  0.000 sec (  0.015%)

         :::::::::::::::::::::::::::::::::::::::::::::::::::::
         ::                     SUMMARY                     ::
         :::::::::::::::::::::::::::::::::::::::::::::::::::::
         :: total energy             -20.622640541178 Eh    ::
         :: gradient norm              0.000542867595 Eh/a0 ::
         :: HOMO-LUMO gap              4.851485103518 eV    ::
         ::.................................................::
         :: SCC energy               -20.927150026696 Eh    ::
         :: -> isotropic ES            0.010144389834 Eh    ::
         :: -> anisotropic ES          0.002660871645 Eh    ::
         :: -> anisotropic XC          0.016858758966 Eh    ::
         :: -> dispersion             -0.009709123026 Eh    ::
         :: repulsion energy           0.304509485518 Eh    ::
         :: add. restraining           0.000000000000 Eh    ::
         :: total charge              -0.000000000000 e     ::
         :::::::::::::::::::::::::::::::::::::::::::::::::::::

           -------------------------------------------------
          |                Property Printout                |
           -------------------------------------------------

    * Orbital Energies and Occupations

         #    Occupation            Energy/Eh            Energy/eV
      -------------------------------------------------------------
         1        2.0000           -0.6818585             -18.5543
       ...           ...                  ...                  ...
         7        2.0000           -0.5509560             -14.9923
         8        2.0000           -0.5499718             -14.9655
         9        2.0000           -0.5326089             -14.4930
        10        2.0000           -0.4967535             -13.5173
        11        2.0000           -0.4919549             -13.3868
        12        2.0000           -0.4844424             -13.1823
        13        2.0000           -0.4728809             -12.8677
        14        2.0000           -0.4666596             -12.6985
        15        2.0000           -0.4596728             -12.5083
        16        2.0000           -0.4407718             -11.9940
        17        2.0000           -0.3906847             -10.6311
        18        2.0000           -0.3808912             -10.3646
        19        2.0000           -0.3789902             -10.3128 (HOMO)
        20                         -0.2007014              -5.4614 (LUMO)
        21                         -0.1464524              -3.9852
        22                          0.0146185               0.3978
        23                          0.1095798               2.9818
        24                          0.1260989               3.4313
        25                          0.1407112               3.8289
        26                          0.1731070               4.7105
        27                          0.1848068               5.0288
        28                          0.1946647               5.2971
        29                          0.1976179               5.3775
        30                          0.2051164               5.5815
       ...                                ...                  ...
        36                          0.6651764              18.1004
      -------------------------------------------------------------
                  HL-Gap            0.1782888 Eh            4.8515 eV
             Fermi-level           -0.2898458 Eh           -7.8871 eV

     #   Z          covCN         q      C6AA      α(0)
     1   6 C        3.753    -0.101    22.496     6.763
     2   6 C        3.061    -0.027    28.623     8.773
     3   6 C        3.134     0.014    27.496     8.584
     4   7 N        2.008    -0.241    27.084     7.719
     5   7 N        3.039     0.084    19.774     6.604
     6   6 C        3.692    -0.062    21.874     6.692
     7   6 C        3.041    -0.033    28.770     8.798
     8   1 H        0.924     0.040     2.454     2.450
     9   1 H        0.925     0.040     2.448     2.447
    10   1 H        0.925     0.035     2.512     2.478
    11   1 H        0.926     0.026     2.649     2.545
    12   1 H        0.924     0.058     2.224     2.332
    13   1 H        0.925     0.083     1.948     2.183
    14   1 H        0.924     0.058     2.223     2.332
    15   1 H        0.926     0.027     2.635     2.538

 Mol. C6AA /au·bohr⁶  :       2237.910348
 Mol. C8AA /au·bohr⁸  :      50363.710168
 Mol. α(0) /au        :         73.238831


Wiberg/Mayer (AO) data.
largest (>0.10) Wiberg bond orders for each atom

 ---------------------------------------------------------------------------
     #   Z sym  total        # sym  WBO       # sym  WBO       # sym  WBO
 ---------------------------------------------------------------------------
     1   6 C    3.997 --     2 C    1.028    10 H    0.985     9 H    0.980
                             8 H    0.972
     2   6 C    3.980 --     7 C    1.483     3 C    1.346     1 C    1.028
     3   6 C    3.977 --     4 N    1.503     2 C    1.346    11 H    0.970
     4   7 N    2.966 --     3 C    1.503     5 N    1.212     7 C    0.158
     5   7 N    3.672 --     7 C    1.267     4 N    1.212     6 C    1.005
     6   6 C    3.971 --     5 N    1.005    13 H    0.979    14 H    0.975
                            12 H    0.974
     7   6 C    3.953 --     2 C    1.483     5 N    1.267    15 H    0.969
                             4 N    0.158
     8   1 H    0.998 --     1 C    0.972
     9   1 H    0.998 --     1 C    0.980
    10   1 H    0.999 --     1 C    0.985
    11   1 H    0.999 --     3 C    0.970
    12   1 H    0.996 --     6 C    0.974
    13   1 H    0.993 --     6 C    0.979
    14   1 H    0.996 --     6 C    0.975
    15   1 H    0.999 --     7 C    0.969
 ---------------------------------------------------------------------------

Topologies differ in total number of bonds
Writing topology from bond orders to xtbtopo.mol

molecular dipole:
                 x           y           z       tot (Debye)
 q only:        0.537      -0.436      -0.311
   full:        0.349      -0.731      -0.508       2.430
molecular quadrupole (traceless):
                xx          xy          yy          xz          yz          zz
 q only:        5.859      -0.668      -3.245      -0.668      -0.661      -2.614
Note: The following floating-point exceptions are signalling: IEEE_UNDERFLOW_FLAG IEEE_DENORMAL
normal termination of xtb
  q+dip:        5.852      -2.387      -3.263      -1.772      -0.565      -2.588
   full:        5.841      -2.354      -3.590      -1.727      -1.364      -2.252


           -------------------------------------------------
          | TOTAL ENERGY              -20.622640541178 Eh   |
          | GRADIENT NORM               0.000542867595 Eh/α |
          | HOMO-LUMO GAP               4.851485103518 eV   |
           -------------------------------------------------

------------------------------------------------------------------------
 * finished run on 2026/08/20 at 02:54:30.259     
------------------------------------------------------------------------
 total:
 * wall-time:     0 d,  0 h,  0 min,  0.992 sec
 *  cpu-time:     0 d,  0 h,  0 min, 14.866 sec
 * ratio c/w:    14.985 speedup
 SCF:
 * wall-time:     0 d,  0 h,  0 min,  0.884 sec
 *  cpu-time:     0 d,  0 h,  0 min, 13.267 sec
 * ratio c/w:    15.008 speedup

