      -----------------------------------------------------------      
     |                   =====================                   |     
     |                           x T B                           |     
     |                   =====================                   |     
     |                         S. Grimme                         |     
     |          Mulliken Center for Theoretical Chemistry        |     
     |                    University of Bonn                     |     
      -----------------------------------------------------------      

   * xtb version 6.7.1 (edcfbbe) compiled by 'conda@3ef47c1a292c' on 2024-11-25

   xtb is free software: you can redistribute it and/or modify it under
   the terms of the GNU Lesser General Public License as published by
   the Free Software Foundation, either version 3 of the License, or
   (at your option) any later version.
   
   xtb is distributed in the hope that it will be useful,
   but WITHOUT ANY WARRANTY; without even the implied warranty of
   MERCHANTABILITY or FITNESS FOR A PARTICULAR PURPOSE.  See the
   GNU Lesser General Public License for more details.
   
   Cite this work as:
   * C. Bannwarth, E. Caldeweyher, S. Ehlert, A. Hansen, P. Pracht,
     J. Seibert, S. Spicher, S. Grimme, WIREs Comput. Mol. Sci., 2020, 11,
     e01493. DOI: 10.1002/wcms.1493
   
   for GFN2-xTB:
   * C. Bannwarth, S. Ehlert and S. Grimme., J. Chem. Theory Comput., 2019,
     15, 1652-1671. DOI: 10.1021/acs.jctc.8b01176
   for GFN1-xTB:
   * S. Grimme, C. Bannwarth, P. Shushkov, J. Chem. Theory Comput., 2017,
     13, 1989-2009. DOI: 10.1021/acs.jctc.7b00118
   for GFN0-xTB:
   * P. Pracht, E. Caldeweyher, S. Ehlert, S. Grimme, ChemRxiv, 2019, preprint.
     DOI: 10.26434/chemrxiv.8326202.v1
   for GFN-FF:
   * S. Spicher and S. Grimme, Angew. Chem. Int. Ed., 2020, 59, 15665-15673.
     DOI: 10.1002/anie.202004239
   
   for ALPB and GBSA implicit solvation:
   * S. Ehlert, M. Stahn, S. Spicher, S. Grimme, J. Chem. Theory Comput.,
     2021, 17, 4250-4261. DOI: 10.1021/acs.jctc.1c00471
   
   for ddCOSMO and CPCM-X implicit solvation:
   * M. Stahn, S. Ehlert, S. Grimme, J. Phys. Chem. A,
     2023, XX, XXXX-XXXX. DOI: 10.1021/acs.jpca.3c04382
   
   for DFT-D4:
   * E. Caldeweyher, C. Bannwarth and S. Grimme, J. Chem. Phys., 2017,
     147, 034112. DOI: 10.1063/1.4993215
   * E. Caldeweyher, S. Ehlert, A. Hansen, H. Neugebauer, S. Spicher,
     C. Bannwarth and S. Grimme, J. Chem. Phys., 2019, 150, 154122.
     DOI: 10.1063/1.5090222
   * E. Caldeweyher, J.-M. Mewes, S. Ehlert and S. Grimme, Phys. Chem. Chem. Phys.
     2020, 22, 8499-8512. DOI: 10.1039/D0CP00502A
   
   for sTDA-xTB:
   * S. Grimme and C. Bannwarth, J. Chem. Phys., 2016, 145, 054103.
     DOI: 10.1063/1.4959605
   
   in the mass-spec context:
   * V. Asgeirsson, C. Bauer and S. Grimme, Chem. Sci., 2017, 8, 4879.
     DOI: 10.1039/c7sc00601b
   * J. Koopman and S. Grimme, ACS Omega 2019, 4, 12, 15120-15133.
     DOI: 10.1021/acsomega.9b02011
   
   for metadynamics refer to:
   * S. Grimme, J. Chem. Theory Comput., 2019, 155, 2847-2862
     DOI: 10.1021/acs.jctc.9b00143
   
   for SPH calculations refer to:
   * S. Spicher and S. Grimme, J. Chem. Theory Comput., 2021, 17, 1701-1714
     DOI: 10.1021/acs.jctc.0c01306
   
   for ONIOM refer to:
   * C. Plett, A. Katbashev, S. Ehlert, S. Grimme, M. Bursch,
     Phys. Chem. Chem. Phys., 2023, 25, 17860-17868. DOI: 10.1039/D3CP02178E
   
   for DIPRO refer to:
   * J. Kohn, N. Gildemeister, S. Grimme, D. Fazzi, A. Hansen,
     J. Chem. Phys., 2023, just accepted.
   
   for PTB refer to:
   * S. Grimme, M. Mueller, A. Hansen, J. Chem. Phys., 2023, 158, 124111.
     DOI: 10.1063/5.0137838
   
   with help from (in alphabetical order)
   P. Atkinson, C. Bannwarth, F. Bohle, G. Brandenburg, E. Caldeweyher
   M. Checinski, S. Dohm, S. Ehlert, S. Ehrlich, I. Gerasimov, C. Hölzer
   A. Katbashev, J. Kohn, J. Koopman, C. Lavigne, S. Lehtola, F. März, M. Müller,
   F. Musil, H. Neugebauer, J. Pisarek, C. Plett, P. Pracht, F. Pultar,
   J. Seibert, P. Shushkov, S. Spicher, M. Stahn, M. Steiner, T. Strunk,
   J. Stückrath, T. Rose, and J. Unsleber
   
 * started run on 2026/08/20 at 02:54:25.811     
   ID    Z sym.   atoms
    1    6 C      1-4, 7
    2    7 N      5, 6
    3   16 S      8
    4    8 O      9
    5    1 H      10-17

           -------------------------------------------------
          |                Calculation Setup                |
           -------------------------------------------------

          program call               : xtb ../../structures/pathway_B_substrate.xyz --gfn 2 --namespace sub_sp
          calculation namespace      : sub_sp
          coordinate file            : ../../structures/pathway_B_substrate.xyz
          omp threads                :                    16


           -------------------------------------------------
          |                 G F N 2 - x T B                 |
           -------------------------------------------------

        Reference                      10.1021/acs.jctc.8b01176
      * Hamiltonian:
        H0-scaling (s, p, d)           1.850000    2.230000    2.230000
        zeta-weighting                 0.500000
      * Dispersion:
        s8                             2.700000
        a1                             0.520000
        a2                             5.000000
        s9                             5.000000
      * Repulsion:
        kExp                           1.500000    1.000000
        rExp                           1.000000
      * Coulomb:
        alpha                          2.000000
        third order                    shell-resolved
        anisotropic                    true
        a3                             3.000000
        a5                             4.000000
        cn-shift                       1.200000
        cn-exp                         4.000000
        max-rad                        5.000000


          ...................................................
          :                      SETUP                      :
          :.................................................:
          :  # basis functions                  50          :
          :  # atomic orbitals                  49          :
          :  # shells                           27          :
          :  # electrons                        50          :
          :  max. iterations                   250          :
          :  Hamiltonian                  GFN2-xTB          :
          :  restarted?                      false          :
          :  GBSA solvation                  false          :
          :  PC potential                    false          :
          :  electronic temp.          300.0000000     K    :
          :  accuracy                    1.0000000          :
          :  -> integral cutoff          0.2500000E+02      :
          :  -> integral neglect         0.1000000E-07      :
          :  -> SCF convergence          0.1000000E-05 Eh   :
          :  -> wf. convergence          0.1000000E-03 e    :
          :  Broyden damping             0.4000000          :
          :  net charge                          0          :
          :  unpaired electrons                  0          :
          ...................................................

 iter      E             dE          RMSdq      gap      omega  full diag
   1    -28.1030546 -0.281031E+02  0.470E+00    2.78       0.0  T
   2    -28.1799350 -0.768804E-01  0.313E+00    2.31       1.0  T
   3    -28.1738863  0.604871E-02  0.173E+00    2.30       1.0  T
   4    -28.1652569  0.862938E-02  0.158E+00    2.44       1.0  T
   5    -28.1926411 -0.273842E-01  0.307E-01    2.33       1.0  T
   6    -28.1928358 -0.194734E-03  0.148E-01    2.30       1.0  T
   7    -28.1930555 -0.219663E-03  0.704E-02    2.30       1.0  T
   8    -28.1930949 -0.393894E-04  0.266E-02    2.31       1.0  T
   9    -28.1930961 -0.116893E-05  0.156E-02    2.31       1.6  T
  10    -28.1930965 -0.427933E-06  0.420E-03    2.31       5.8  T
  11    -28.1930966 -0.856617E-07  0.201E-03    2.31      12.1  T
  12    -28.1930966 -0.163050E-08  0.624E-04    2.31      38.9  T
  13    -28.1930966 -0.148847E-08  0.156E-04    2.31     155.7  T

   *** convergence criteria satisfied after 13 iterations ***

         #    Occupation            Energy/Eh            Energy/eV
      -------------------------------------------------------------
         1        2.0000           -0.7346497             -19.9908
       ...           ...                  ...                  ...
        19        2.0000           -0.4659937             -12.6803
        20        2.0000           -0.4583466             -12.4722
        21        2.0000           -0.4359761             -11.8635
        22        2.0000           -0.4170416             -11.3483
        23        2.0000           -0.3765749             -10.2471
        24        2.0000           -0.3676584             -10.0045
        25        2.0000           -0.3610949              -9.8259 (HOMO)
        26                         -0.2761211              -7.5136 (LUMO)
        27                         -0.1838941              -5.0040
        28                         -0.1784652              -4.8563
        29                         -0.1175551              -3.1988
        30                         -0.0391528              -1.0654
       ...                                ...                  ...
        49                          0.9482747              25.8039
      -------------------------------------------------------------
                  HL-Gap            0.0849739 Eh            2.3123 eV
             Fermi-level           -0.3186080 Eh           -8.6698 eV

 SCC (total)                   0 d,  0 h,  0 min,  1.153 sec
 SCC setup                      ...        0 min,  0.008 sec (  0.697%)
 Dispersion                     ...        0 min,  0.014 sec (  1.226%)
 classical contributions        ...        0 min,  0.008 sec (  0.735%)
 integral evaluation            ...        0 min,  0.024 sec (  2.047%)
 iterations                     ...        0 min,  0.995 sec ( 86.284%)
 molecular gradient             ...        0 min,  0.104 sec (  8.997%)
 printout                       ...        0 min,  0.000 sec (  0.011%)

         :::::::::::::::::::::::::::::::::::::::::::::::::::::
         ::                     SUMMARY                     ::
         :::::::::::::::::::::::::::::::::::::::::::::::::::::
         :: total energy             -27.872417233821 Eh    ::
         :: gradient norm              0.000959797474 Eh/a0 ::
         :: HOMO-LUMO gap              2.312256947000 eV    ::
         ::.................................................::
         :: SCC energy               -28.193074369271 Eh    ::
         :: -> isotropic ES            0.055307797783 Eh    ::
         :: -> anisotropic ES          0.000307834472 Eh    ::
         :: -> anisotropic XC          0.015772834567 Eh    ::
         :: -> dispersion             -0.015125044556 Eh    ::
         :: repulsion energy           0.320657135450 Eh    ::
         :: add. restraining           0.000000000000 Eh    ::
         :: total charge               0.000000000000 e     ::
         :::::::::::::::::::::::::::::::::::::::::::::::::::::

           -------------------------------------------------
          |                Property Printout                |
           -------------------------------------------------

    * Orbital Energies and Occupations

         #    Occupation            Energy/Eh            Energy/eV
      -------------------------------------------------------------
         1        2.0000           -0.7346497             -19.9908
       ...           ...                  ...                  ...
        13        2.0000           -0.5089456             -13.8491
        14        2.0000           -0.5069972             -13.7961
        15        2.0000           -0.5029788             -13.6867
        16        2.0000           -0.4907447             -13.3538
        17        2.0000           -0.4869950             -13.2518
        18        2.0000           -0.4723815             -12.8542
        19        2.0000           -0.4659937             -12.6803
        20        2.0000           -0.4583466             -12.4722
        21        2.0000           -0.4359761             -11.8635
        22        2.0000           -0.4170416             -11.3483
        23        2.0000           -0.3765749             -10.2471
        24        2.0000           -0.3676584             -10.0045
        25        2.0000           -0.3610949              -9.8259 (HOMO)
        26                         -0.2761211              -7.5136 (LUMO)
        27                         -0.1838941              -5.0040
        28                         -0.1784652              -4.8563
        29                         -0.1175551              -3.1988
        30                         -0.0391528              -1.0654
        31                         -0.0018292              -0.0498
        32                          0.0537105               1.4615
        33                          0.0813413               2.2134
        34                          0.1204271               3.2770
        35                          0.1335785               3.6349
        36                          0.1458711               3.9694
       ...                                ...                  ...
        49                          0.9482747              25.8039
      -------------------------------------------------------------
                  HL-Gap            0.0849739 Eh            2.3123 eV
             Fermi-level           -0.3186080 Eh           -8.6698 eV

     #   Z          covCN         q      C6AA      α(0)
     1   6 C        3.775    -0.112    22.664     6.783
     2   6 C        2.939    -0.032    28.795     8.801
     3   6 C        2.945    -0.041    29.006     8.833
     4   6 C        2.864    -0.031    28.767     8.792
     5   7 N        2.897     0.177    18.289     6.352
     6   7 N        1.932    -0.339    29.637     8.072
     7   6 C        3.721    -0.075    22.058     6.708
     8  16 S        2.905     0.474   123.208    18.682
     9   8 O        0.860    -0.518    24.176     6.592
    10   1 H        0.925     0.064     2.153     2.295
    11   1 H        0.925     0.055     2.253     2.347
    12   1 H        0.925     0.049     2.335     2.390
    13   1 H        0.925     0.040     2.444     2.445
    14   1 H        0.926     0.043     2.409     2.427
    15   1 H        0.924     0.079     1.993     2.208
    16   1 H        0.925     0.094     1.845     2.124
    17   1 H        0.925     0.072     2.065     2.247

 Mol. C6AA /au·bohr⁶  :       3964.066446
 Mol. C8AA /au·bohr⁸  :     104441.623257
 Mol. α(0) /au        :         98.096377


Wiberg/Mayer (AO) data.
largest (>0.10) Wiberg bond orders for each atom

 ---------------------------------------------------------------------------
     #   Z sym  total        # sym  WBO       # sym  WBO       # sym  WBO
 ---------------------------------------------------------------------------
     1   6 C    3.995 --     2 C    1.044    12 H    0.980    11 H    0.965
                            10 H    0.963
     2   6 C    3.979 --     3 C    1.696     1 C    1.044     8 S    0.932
                             6 N    0.130
     3   6 C    3.990 --     2 C    1.696     4 C    1.221    13 H    0.953
     4   6 C    3.956 --     5 N    1.400     3 C    1.221    14 H    0.964
                             6 N    0.258
     5   7 N    3.778 --     4 C    1.400     6 N    1.282     7 C    0.976
     6   7 N    2.961 --     5 N    1.282     8 S    1.128     4 C    0.258
                             2 C    0.130
     7   6 C    3.960 --    17 H    0.977     5 N    0.976    16 H    0.975
                            15 H    0.968
     8  16 S    3.965 --     9 O    1.784     6 N    1.128     2 C    0.932
     9   8 O    2.015 --     8 S    1.784
    10   1 H    0.995 --     1 C    0.963
    11   1 H    0.997 --     1 C    0.965
    12   1 H    0.998 --     1 C    0.980
    13   1 H    0.998 --     3 C    0.953
    14   1 H    0.998 --     4 C    0.964
    15   1 H    0.993 --     7 C    0.968
    16   1 H    0.991 --     7 C    0.975
    17   1 H    0.995 --     7 C    0.977
 ---------------------------------------------------------------------------
Note: The following floating-point exceptions are signalling: IEEE_DENORMAL
normal termination of xtb

Topologies differ in total number of bonds
Writing topology from bond orders to xtbtopo.mol

molecular dipole:
                 x           y           z       tot (Debye)
 q only:        0.470       0.876      -1.491
   full:        0.173       1.366      -1.504       5.182
molecular quadrupole (traceless):
                xx          xy          yy          xz          yz          zz
 q only:        7.436       6.961       6.157       3.214       5.049     -13.593
  q+dip:        6.673       7.443       6.946       3.444       5.578     -13.618
   full:        6.885       7.793       6.017       3.224       5.614     -12.902


           -------------------------------------------------
          | TOTAL ENERGY              -27.872417233821 Eh   |
          | GRADIENT NORM               0.000959797474 Eh/α |
          | HOMO-LUMO GAP               2.312256947000 eV   |
           -------------------------------------------------

------------------------------------------------------------------------
 * finished run on 2026/08/20 at 02:54:27.083     
------------------------------------------------------------------------
 total:
 * wall-time:     0 d,  0 h,  0 min,  1.272 sec
 *  cpu-time:     0 d,  0 h,  0 min, 19.035 sec
 * ratio c/w:    14.962 speedup
 SCF:
 * wall-time:     0 d,  0 h,  0 min,  1.153 sec
 *  cpu-time:     0 d,  0 h,  0 min, 17.335 sec
 * ratio c/w:    15.028 speedup

