17
Properties=species:S:1:pos:R:3 pbc="F F F"
C       -2.29504400      -1.28131200      -0.47441500
C       -1.17464200      -0.39266800      -0.02947300
C       -1.33559400       0.93477600      -0.00320300
C       -0.26564800       1.88429400       0.37104600
N        0.98378900       1.54729400       0.50395900
N        1.45703900       0.23156900       0.36804200
C        2.74823243       1.40310482       0.54864597
S        0.35412200      -1.11953800       0.49417500
O        0.17188500      -1.28766800       1.99642400
H       -3.17789600      -1.13368900       0.18295500
H       -1.99165900      -2.34812000      -0.42478800
H       -2.57331500      -1.04086000      -1.52227100
H       -2.29593400       1.35538900      -0.27727200
H       -0.53146700       2.92731800       0.47801100
H        2.98897843       0.55727982      -0.12900203
H        3.07198443       1.15189282       1.58010897
H        3.29852543       2.30329682       0.20183497
