      -----------------------------------------------------------      
     |                   =====================                   |     
     |                           x T B                           |     
     |                   =====================                   |     
     |                         S. Grimme                         |     
     |          Mulliken Center for Theoretical Chemistry        |     
     |                    University of Bonn                     |     
      -----------------------------------------------------------      

   * xtb version 6.7.1 (edcfbbe) compiled by 'conda@3ef47c1a292c' on 2024-11-25

   xtb is free software: you can redistribute it and/or modify it under
   the terms of the GNU Lesser General Public License as published by
   the Free Software Foundation, either version 3 of the License, or
   (at your option) any later version.
   
   xtb is distributed in the hope that it will be useful,
   but WITHOUT ANY WARRANTY; without even the implied warranty of
   MERCHANTABILITY or FITNESS FOR A PARTICULAR PURPOSE.  See the
   GNU Lesser General Public License for more details.
   
   Cite this work as:
   * C. Bannwarth, E. Caldeweyher, S. Ehlert, A. Hansen, P. Pracht,
     J. Seibert, S. Spicher, S. Grimme, WIREs Comput. Mol. Sci., 2020, 11,
     e01493. DOI: 10.1002/wcms.1493
   
   for GFN2-xTB:
   * C. Bannwarth, S. Ehlert and S. Grimme., J. Chem. Theory Comput., 2019,
     15, 1652-1671. DOI: 10.1021/acs.jctc.8b01176
   for GFN1-xTB:
   * S. Grimme, C. Bannwarth, P. Shushkov, J. Chem. Theory Comput., 2017,
     13, 1989-2009. DOI: 10.1021/acs.jctc.7b00118
   for GFN0-xTB:
   * P. Pracht, E. Caldeweyher, S. Ehlert, S. Grimme, ChemRxiv, 2019, preprint.
     DOI: 10.26434/chemrxiv.8326202.v1
   for GFN-FF:
   * S. Spicher and S. Grimme, Angew. Chem. Int. Ed., 2020, 59, 15665-15673.
     DOI: 10.1002/anie.202004239
   
   for ALPB and GBSA implicit solvation:
   * S. Ehlert, M. Stahn, S. Spicher, S. Grimme, J. Chem. Theory Comput.,
     2021, 17, 4250-4261. DOI: 10.1021/acs.jctc.1c00471
   
   for ddCOSMO and CPCM-X implicit solvation:
   * M. Stahn, S. Ehlert, S. Grimme, J. Phys. Chem. A,
     2023, XX, XXXX-XXXX. DOI: 10.1021/acs.jpca.3c04382
   
   for DFT-D4:
   * E. Caldeweyher, C. Bannwarth and S. Grimme, J. Chem. Phys., 2017,
     147, 034112. DOI: 10.1063/1.4993215
   * E. Caldeweyher, S. Ehlert, A. Hansen, H. Neugebauer, S. Spicher,
     C. Bannwarth and S. Grimme, J. Chem. Phys., 2019, 150, 154122.
     DOI: 10.1063/1.5090222
   * E. Caldeweyher, J.-M. Mewes, S. Ehlert and S. Grimme, Phys. Chem. Chem. Phys.
     2020, 22, 8499-8512. DOI: 10.1039/D0CP00502A
   
   for sTDA-xTB:
   * S. Grimme and C. Bannwarth, J. Chem. Phys., 2016, 145, 054103.
     DOI: 10.1063/1.4959605
   
   in the mass-spec context:
   * V. Asgeirsson, C. Bauer and S. Grimme, Chem. Sci., 2017, 8, 4879.
     DOI: 10.1039/c7sc00601b
   * J. Koopman and S. Grimme, ACS Omega 2019, 4, 12, 15120-15133.
     DOI: 10.1021/acsomega.9b02011
   
   for metadynamics refer to:
   * S. Grimme, J. Chem. Theory Comput., 2019, 155, 2847-2862
     DOI: 10.1021/acs.jctc.9b00143
   
   for SPH calculations refer to:
   * S. Spicher and S. Grimme, J. Chem. Theory Comput., 2021, 17, 1701-1714
     DOI: 10.1021/acs.jctc.0c01306
   
   for ONIOM refer to:
   * C. Plett, A. Katbashev, S. Ehlert, S. Grimme, M. Bursch,
     Phys. Chem. Chem. Phys., 2023, 25, 17860-17868. DOI: 10.1039/D3CP02178E
   
   for DIPRO refer to:
   * J. Kohn, N. Gildemeister, S. Grimme, D. Fazzi, A. Hansen,
     J. Chem. Phys., 2023, just accepted.
   
   for PTB refer to:
   * S. Grimme, M. Mueller, A. Hansen, J. Chem. Phys., 2023, 158, 124111.
     DOI: 10.1063/5.0137838
   
   with help from (in alphabetical order)
   P. Atkinson, C. Bannwarth, F. Bohle, G. Brandenburg, E. Caldeweyher
   M. Checinski, S. Dohm, S. Ehlert, S. Ehrlich, I. Gerasimov, C. Hölzer
   A. Katbashev, J. Kohn, J. Koopman, C. Lavigne, S. Lehtola, F. März, M. Müller,
   F. Musil, H. Neugebauer, J. Pisarek, C. Plett, P. Pracht, F. Pultar,
   J. Seibert, P. Shushkov, S. Spicher, M. Stahn, M. Steiner, T. Strunk,
   J. Stückrath, T. Rose, and J. Unsleber
   
 * started run on 2026/08/20 at 02:25:17.396     
   ID    Z sym.   atoms
    1    6 C      1-4, 7
    2    7 N      5, 6
    3   16 S      8
    4    8 O      9
    5    1 H      10-17

           -------------------------------------------------
          |                Calculation Setup                |
           -------------------------------------------------

          program call               : xtb substrate_seed.xyz --opt normal --gfn 2 --namespace subopt
          calculation namespace      : subopt
          coordinate file            : substrate_seed.xyz
          omp threads                :                    16


           -------------------------------------------------
          |                 G F N 2 - x T B                 |
           -------------------------------------------------

        Reference                      10.1021/acs.jctc.8b01176
      * Hamiltonian:
        H0-scaling (s, p, d)           1.850000    2.230000    2.230000
        zeta-weighting                 0.500000
      * Dispersion:
        s8                             2.700000
        a1                             0.520000
        a2                             5.000000
        s9                             5.000000
      * Repulsion:
        kExp                           1.500000    1.000000
        rExp                           1.000000
      * Coulomb:
        alpha                          2.000000
        third order                    shell-resolved
        anisotropic                    true
        a3                             3.000000
        a5                             4.000000
        cn-shift                       1.200000
        cn-exp                         4.000000
        max-rad                        5.000000


          ...................................................
          :                      SETUP                      :
          :.................................................:
          :  # basis functions                  50          :
          :  # atomic orbitals                  49          :
          :  # shells                           27          :
          :  # electrons                        50          :
          :  max. iterations                   250          :
          :  Hamiltonian                  GFN2-xTB          :
          :  restarted?                      false          :
          :  GBSA solvation                  false          :
          :  PC potential                    false          :
          :  electronic temp.          300.0000000     K    :
          :  accuracy                    1.0000000          :
          :  -> integral cutoff          0.2500000E+02      :
          :  -> integral neglect         0.1000000E-07      :
          :  -> SCF convergence          0.1000000E-05 Eh   :
          :  -> wf. convergence          0.1000000E-03 e    :
          :  Broyden damping             0.4000000          :
          :  net charge                          0          :
          :  unpaired electrons                  0          :
          ...................................................

 iter      E             dE          RMSdq      gap      omega  full diag
   1    -27.8928597 -0.278929E+02  0.500E+00    2.16       0.0  T
   2    -27.9620454 -0.691857E-01  0.336E+00    1.53       1.0  T
   3    -27.9724177 -0.103722E-01  0.186E+00    1.74       1.0  T
   4    -27.9625310  0.988661E-02  0.931E-01    1.45       1.0  T
   5    -27.9762502 -0.137191E-01  0.358E-01    1.64       1.0  T
   6    -27.9770383 -0.788141E-03  0.155E-01    1.60       1.0  T
   7    -27.9770442 -0.590281E-05  0.838E-02    1.60       1.0  T
   8    -27.9771425 -0.982471E-04  0.319E-02    1.60       1.0  T
   9    -27.9771449 -0.246775E-05  0.142E-02    1.60       1.7  T
  10    -27.9771454 -0.419646E-06  0.429E-03    1.60       5.7  T
  11    -27.9771454 -0.759999E-07  0.200E-03    1.60      12.1  T
  12    -27.9771454 -0.176925E-07  0.458E-04    1.60      53.0  T
  13    -27.9771454 -0.105650E-08  0.184E-04    1.60     131.8  T

   *** convergence criteria satisfied after 13 iterations ***

         #    Occupation            Energy/Eh            Energy/eV
      -------------------------------------------------------------
         1        2.0000           -0.7317908             -19.9130
       ...           ...                  ...                  ...
        19        2.0000           -0.4618392             -12.5673
        20        2.0000           -0.4456818             -12.1276
        21        2.0000           -0.4304084             -11.7120
        22        2.0000           -0.4049572             -11.0194
        23        2.0000           -0.3692171             -10.0469
        24        2.0000           -0.3631873              -9.8828
        25        2.0000           -0.3427071              -9.3255 (HOMO)
        26                         -0.2838981              -7.7253 (LUMO)
        27                         -0.2546909              -6.9305
        28                         -0.1964118              -5.3446
        29                         -0.1814045              -4.9363
        30                         -0.1258293              -3.4240
       ...                                ...                  ...
        49                          0.7886726              21.4609
      -------------------------------------------------------------
                  HL-Gap            0.0588089 Eh            1.6003 eV
             Fermi-level           -0.3133026 Eh           -8.5254 eV

 SCC (total)                   0 d,  0 h,  0 min,  2.101 sec
 SCC setup                      ...        0 min,  0.020 sec (  0.957%)
 Dispersion                     ...        0 min,  0.053 sec (  2.510%)
 classical contributions        ...        0 min,  0.058 sec (  2.782%)
 integral evaluation            ...        0 min,  0.096 sec (  4.553%)
 iterations                     ...        0 min,  1.607 sec ( 76.482%)
 molecular gradient             ...        0 min,  0.267 sec ( 12.708%)
 printout                       ...        0 min,  0.000 sec (  0.007%)

         :::::::::::::::::::::::::::::::::::::::::::::::::::::
         ::                     SUMMARY                     ::
         :::::::::::::::::::::::::::::::::::::::::::::::::::::
         :: total energy             -27.703806650723 Eh    ::
         :: gradient norm              0.167654919656 Eh/a0 ::
         :: HOMO-LUMO gap              1.600272619060 eV    ::
         ::.................................................::
         :: SCC energy               -27.977117303610 Eh    ::
         :: -> isotropic ES            0.059982058080 Eh    ::
         :: -> anisotropic ES         -0.003429270307 Eh    ::
         :: -> anisotropic XC          0.017618503765 Eh    ::
         :: -> dispersion             -0.014786017635 Eh    ::
         :: repulsion energy           0.273310652888 Eh    ::
         :: add. restraining           0.000000000000 Eh    ::
         :: total charge              -0.000000000000 e     ::
         :::::::::::::::::::::::::::::::::::::::::::::::::::::

      ----------------------------------------------------------- 
     |                   =====================                   |
     |                        A N C O P T                        |
     |                   =====================                   |
     |               Approximate Normal Coordinate               |
     |                Rational Function Optimizer                |
      ----------------------------------------------------------- 
      ----------------------------------------------------------- 
     |                   =====================                   |
     |                        A N C O P T                        |
     |                   =====================                   |
     |               Approximate Normal Coordinate               |
     |                Rational Function Optimizer                |
      ----------------------------------------------------------- 

          ...................................................
          :                      SETUP                      :
          :.................................................:
          :   optimization level            normal          :
          :   max. optcycles                   200          :
          :   ANC micro-cycles                  20          :
          :   degrees of freedom                45          :
          :.................................................:
          :   RF solver                   davidson          :
          :   write xtbopt.log                true          :
          :   linear?                        false          :
          :   energy convergence         0.5000000E-05 Eh   :
          :   grad. convergence          0.1000000E-02 Eh/α :
          :   maxmium RF displ.          1.0000000          :
          :   Hlow (freq-cutoff)         0.1000000E-01      :
          :   Hmax (freq-cutoff)         5.0000000          :
          :   S6 in model hess.         20.0000000          :
          ...................................................

generating ANC from exact Hessian ...
Using Lindh-Hessian (1995)
 Shifting diagonal of input Hessian by    7.6102932104873816E-003
 Lowest  eigenvalues of input Hessian
    0.000000    0.000000    0.000000    0.000000    0.000000    0.000000
    0.010000    0.013912    0.015780    0.016691    0.020250    0.023653
    0.029010    0.032982    0.036552    0.050339    0.056552    0.066116
 Highest eigenvalues
    1.312557    1.353468    1.597632    1.878748    2.058917    2.117273


........................................................................
.............................. CYCLE    1 ..............................
........................................................................

 iter      E             dE          RMSdq      gap      omega  full diag
   1    -27.9771454 -0.279771E+02  0.628E-05    1.60       0.0  T
   2    -27.9771454 -0.369837E-11  0.439E-05    1.60     552.4  T
   3    -27.9771454  0.355627E-11  0.347E-05    1.60     699.5  T
     SCC iter.                  ...        0 min,  0.472 sec
     gradient                   ...        0 min,  0.286 sec
 * total energy  :   -27.7038067 Eh     change       -0.1473666E-09 Eh
   gradient norm :     0.1676536 Eh/α   predicted     0.0000000E+00 (-100.00%)
   displ. norm   :     0.5597203 α      lambda       -0.5682263E-01
   maximum displ.:     0.4018105 α      in ANC's #8, #29, #7, ...

........................................................................
.............................. CYCLE    2 ..............................
........................................................................

 iter      E             dE          RMSdq      gap      omega  full diag
   1    -28.0298419 -0.280298E+02  0.739E-01    1.96       0.0  T
   2    -28.0302274 -0.385484E-03  0.463E-01    1.99       1.0  T
   3    -28.0305234 -0.295987E-03  0.371E-01    1.90       1.0  T
   4    -28.0316148 -0.109146E-02  0.116E-01    1.95       1.0  T
   5    -28.0317391 -0.124263E-03  0.366E-02    1.92       1.0  T
   6    -28.0317428 -0.368313E-05  0.210E-02    1.93       1.2  T
   7    -28.0317476 -0.482628E-05  0.536E-03    1.93       4.5  T
   8    -28.0317478 -0.201907E-06  0.231E-03    1.93      10.5  T
   9    -28.0317478 -0.740353E-08  0.646E-04    1.93      37.5  T
  10    -28.0317478 -0.141469E-08  0.317E-04    1.93      76.4  T
     SCC iter.                  ...        0 min,  1.507 sec
     gradient                   ...        0 min,  0.202 sec
 * total energy  :   -27.7437269 Eh     change       -0.3992023E-01 Eh
   gradient norm :     0.0921806 Eh/α   predicted    -0.3731221E-01 (  -6.53%)
   displ. norm   :     0.5328542 α      lambda       -0.2783133E-01
   maximum displ.:     0.3908868 α      in ANC's #8, #5, #10, ...

........................................................................
.............................. CYCLE    3 ..............................
........................................................................

 iter      E             dE          RMSdq      gap      omega  full diag
   1    -28.0706834 -0.280707E+02  0.102E+00    2.14       0.0  T
   2    -28.0738706 -0.318724E-02  0.541E-01    2.04       1.0  T
   3    -28.0749157 -0.104508E-02  0.358E-01    2.00       1.0  T
   4    -28.0752857 -0.370006E-03  0.207E-01    2.04       1.0  T
   5    -28.0757377 -0.452017E-03  0.566E-02    1.99       1.0  T
   6    -28.0757825 -0.447281E-04  0.197E-02    1.99       1.2  T
   7    -28.0757849 -0.243786E-05  0.847E-03    1.99       2.9  T
   8    -28.0757851 -0.193943E-06  0.326E-03    1.99       7.4  T
   9    -28.0757851 -0.535343E-08  0.122E-03    1.99      19.9  T
  10    -28.0757851 -0.663635E-08  0.554E-04    1.99      43.8  T
  11    -28.0757851 -0.295810E-09  0.205E-04    1.99     118.2  T
     SCC iter.                  ...        0 min,  1.539 sec
     gradient                   ...        0 min,  0.294 sec
 * total energy  :   -27.7718982 Eh     change       -0.2817137E-01 Eh
   gradient norm :     0.1127414 Eh/α   predicted    -0.1786680E-01 ( -36.58%)
   displ. norm   :     0.9212422 α      lambda       -0.5797837E-01
   maximum displ.:     0.5684036 α      in ANC's #8, #34, #21, ...

........................................................................
.............................. CYCLE    4 ..............................
........................................................................

 iter      E             dE          RMSdq      gap      omega  full diag
   1    -28.1369360 -0.281369E+02  0.165E+00    2.06       0.0  T
   2    -28.1320493  0.488667E-02  0.140E+00    2.11       1.0  T
   3    -28.1529987 -0.209494E-01  0.643E-01    2.01       1.0  T
   4    -28.1558296 -0.283089E-02  0.275E-01    2.03       1.0  T
   5    -28.1561730 -0.343371E-03  0.461E-02    2.00       1.0  T
   6    -28.1561752 -0.222694E-05  0.244E-02    2.00       1.0  T
   7    -28.1561781 -0.295371E-05  0.121E-02    2.00       2.0  T
   8    -28.1561799 -0.178523E-05  0.434E-03    2.00       5.6  T
   9    -28.1561800 -0.648691E-07  0.188E-03    2.00      12.9  T
  10    -28.1561800 -0.762107E-08  0.763E-04    2.00      31.8  T
  11    -28.1561800 -0.500357E-09  0.311E-04    2.00      78.1  T
     SCC iter.                  ...        0 min,  1.651 sec
     gradient                   ...        0 min,  0.255 sec
 * total energy  :   -27.8028394 Eh     change       -0.3094119E-01 Eh
   gradient norm :     0.1789325 Eh/α   predicted    -0.5359167E-01 (  73.20%)
   displ. norm   :     0.8111480 α      lambda       -0.3367260E-01
   maximum displ.:     0.6897606 α      in ANC's #8, #5, #7, ...

........................................................................
.............................. CYCLE    5 ..............................
........................................................................

 iter      E             dE          RMSdq      gap      omega  full diag
   1    -28.1208055 -0.281208E+02  0.745E-01    2.19       0.0  T
   2    -28.1192224  0.158313E-02  0.689E-01    2.07       1.0  T
   3    -28.1232836 -0.406125E-02  0.320E-01    2.14       1.0  T
   4    -28.1236660 -0.382365E-03  0.110E-01    2.11       1.0  T
   5    -28.1237591 -0.930657E-04  0.341E-02    2.12       1.0  T
   6    -28.1237656 -0.657124E-05  0.163E-02    2.12       1.5  T
   7    -28.1237679 -0.226406E-05  0.498E-03    2.12       4.9  T
   8    -28.1237680 -0.946074E-07  0.218E-03    2.12      11.1  T
   9    -28.1237680 -0.625165E-08  0.746E-04    2.12      32.5  T
  10    -28.1237680 -0.199868E-08  0.352E-04    2.12      68.9  T
     SCC iter.                  ...        0 min,  1.440 sec
     gradient                   ...        0 min,  0.180 sec
 * total energy  :   -27.8136692 Eh     change       -0.1082976E-01 Eh
   gradient norm :     0.1590203 Eh/α   predicted    -0.2791395E-01 ( 157.75%)
   displ. norm   :     0.3124327 α      lambda       -0.1272889E-01
   maximum displ.:     0.1277463 α      in ANC's #1, #8, #23, ...

........................................................................
.............................. CYCLE    6 ..............................
........................................................................

 iter      E             dE          RMSdq      gap      omega  full diag
   1    -28.1467744 -0.281468E+02  0.384E-01    2.11       0.0  T
   2    -28.1468275 -0.530920E-04  0.291E-01    2.13       1.0  T
   3    -28.1473672 -0.539768E-03  0.166E-01    2.10       1.0  T
   4    -28.1475544 -0.187211E-03  0.763E-02    2.12       1.0  T
   5    -28.1475907 -0.362562E-04  0.136E-02    2.11       1.8  T
   6    -28.1475920 -0.133024E-05  0.670E-03    2.11       3.6  T
   7    -28.1475923 -0.305238E-06  0.183E-03    2.11      13.2  T
   8    -28.1475924 -0.141556E-07  0.878E-04    2.11      27.6  T
   9    -28.1475924 -0.198187E-08  0.307E-04    2.11      78.9  T
     SCC iter.                  ...        0 min,  1.375 sec
     gradient                   ...        0 min,  0.289 sec
 * total energy  :   -27.8232814 Eh     change       -0.9612237E-02 Eh
   gradient norm :     0.1533320 Eh/α   predicted    -0.6985705E-02 ( -27.32%)
   displ. norm   :     0.6033658 α      lambda       -0.2520287E-01
   maximum displ.:     0.2746386 α      in ANC's #8, #1, #26, ...

........................................................................
.............................. CYCLE    7 ..............................
........................................................................

 iter      E             dE          RMSdq      gap      omega  full diag
   1    -28.1552779 -0.281553E+02  0.848E-01    2.24       0.0  T
   2    -28.1546389  0.638968E-03  0.723E-01    2.02       1.0  T
   3    -28.1594244 -0.478548E-02  0.335E-01    2.13       1.0  T
   4    -28.1598008 -0.376430E-03  0.121E-01    2.10       1.0  T
   5    -28.1598455 -0.446601E-04  0.399E-02    2.10       1.0  T
   6    -28.1598519 -0.642294E-05  0.225E-02    2.11       1.1  T
   7    -28.1598574 -0.554691E-05  0.531E-03    2.11       4.6  T
   8    -28.1598575 -0.233522E-07  0.224E-03    2.11      10.8  T
   9    -28.1598575 -0.229507E-07  0.719E-04    2.11      33.8  T
  10    -28.1598575 -0.224937E-08  0.218E-04    2.11     111.3  T
     SCC iter.                  ...        0 min,  1.659 sec
     gradient                   ...        0 min,  0.192 sec
 * total energy  :   -27.8052568 Eh     change        0.1802461E-01 Eh
   gradient norm :     0.1962214 Eh/α   predicted    -0.1718902E-01 (-195.36%)
   displ. norm   :     0.4071353 α      lambda       -0.4835013E-01
   maximum displ.:     0.2840621 α      in ANC's #8, #5, #26, ...

........................................................................
.............................. CYCLE    8 ..............................
........................................................................

 iter      E             dE          RMSdq      gap      omega  full diag
   1    -28.1555387 -0.281555E+02  0.596E-01    2.08       0.0  T
   2    -28.1537343  0.180445E-02  0.633E-01    2.20       1.0  T
   3    -28.1588359 -0.510163E-02  0.194E-01    2.14       1.0  T
   4    -28.1588504 -0.144483E-04  0.821E-02    2.14       1.0  T
   5    -28.1588760 -0.255975E-04  0.448E-02    2.15       1.0  T
   6    -28.1589010 -0.250340E-04  0.119E-02    2.15       2.0  T
   7    -28.1589011 -0.118201E-06  0.358E-03    2.15       6.8  T
   8    -28.1589011 -0.805814E-08  0.136E-03    2.15      17.9  T
   9    -28.1589011 -0.995877E-08  0.560E-04    2.15      43.3  T
  10    -28.1589011 -0.347743E-09  0.215E-04    2.15     112.8  T
     SCC iter.                  ...        0 min,  1.364 sec
     gradient                   ...        0 min,  0.331 sec
 * total energy  :   -27.8313821 Eh     change       -0.2612530E-01 Eh
   gradient norm :     0.1096490 Eh/α   predicted    -0.2818227E-01 (   7.87%)
   displ. norm   :     0.8169053 α      lambda       -0.1296374E-01
   maximum displ.:     0.5555530 α      in ANC's #8, #5, #10, ...

........................................................................
.............................. CYCLE    9 ..............................
........................................................................

 iter      E             dE          RMSdq      gap      omega  full diag
   1    -28.1691318 -0.281691E+02  0.435E-01    2.24       0.0  T
   2    -28.1691106  0.211932E-04  0.290E-01    2.26       1.0  T
   3    -28.1693240 -0.213401E-03  0.219E-01    2.24       1.0  T
   4    -28.1696881 -0.364059E-03  0.543E-02    2.25       1.0  T
   5    -28.1697089 -0.208496E-04  0.217E-02    2.25       1.1  T
   6    -28.1697148 -0.592021E-05  0.744E-03    2.25       3.3  T
   7    -28.1697150 -0.156705E-06  0.171E-03    2.25      14.2  T
   8    -28.1697150 -0.390207E-08  0.889E-04    2.25      27.3  T
   9    -28.1697150 -0.110263E-08  0.355E-04    2.25      68.3  T
     SCC iter.                  ...        0 min,  1.133 sec
     gradient                   ...        0 min,  0.286 sec
 * total energy  :   -27.8377948 Eh     change       -0.6412678E-02 Eh
   gradient norm :     0.1116185 Eh/α   predicted    -0.1080743E-01 (  68.53%)
   displ. norm   :     0.3768623 α      lambda       -0.6698268E-02
   maximum displ.:     0.1882987 α      in ANC's #3, #1, #5, ...

........................................................................
.............................. CYCLE   10 ..............................
........................................................................

 iter      E             dE          RMSdq      gap      omega  full diag
   1    -28.1712669 -0.281713E+02  0.245E-01    2.28       0.0  T
   2    -28.1712539  0.130536E-04  0.171E-01    2.26       1.0  T
   3    -28.1713346 -0.807100E-04  0.111E-01    2.27       1.0  T
   4    -28.1714240 -0.893697E-04  0.455E-02    2.27       1.0  T
   5    -28.1714376 -0.136682E-04  0.111E-02    2.27       2.2  T
   6    -28.1714385 -0.853215E-06  0.561E-03    2.27       4.3  T
   7    -28.1714387 -0.244316E-06  0.134E-03    2.27      18.1  T
   8    -28.1714387 -0.605757E-08  0.749E-04    2.27      32.4  T
   9    -28.1714387 -0.118012E-08  0.249E-04    2.27      97.4  T
     SCC iter.                  ...        0 min,  0.918 sec
     gradient                   ...        0 min,  0.233 sec
 * total energy  :   -27.8418161 Eh     change       -0.4021305E-02 Eh
   gradient norm :     0.1140547 Eh/α   predicted    -0.3824791E-02 (  -4.89%)
   displ. norm   :     0.3884120 α      lambda       -0.6517815E-02
   maximum displ.:     0.2911144 α      in ANC's #3, #6, #5, ...

........................................................................
.............................. CYCLE   11 ..............................
........................................................................

 iter      E             dE          RMSdq      gap      omega  full diag
   1    -28.1690573 -0.281691E+02  0.318E-01    2.29       0.0  T
   2    -28.1688363  0.220963E-03  0.293E-01    2.26       1.0  T
   3    -28.1695788 -0.742483E-03  0.123E-01    2.28       1.0  T
   4    -28.1696172 -0.384771E-04  0.646E-02    2.27       1.0  T
   5    -28.1696406 -0.233622E-04  0.152E-02    2.27       1.6  T
   6    -28.1696407 -0.102235E-06  0.848E-03    2.27       2.9  T
   7    -28.1696416 -0.934110E-06  0.207E-03    2.27      11.7  T
   8    -28.1696417 -0.199825E-07  0.113E-03    2.27      21.5  T
   9    -28.1696417 -0.269777E-08  0.357E-04    2.27      68.0  T
  10    -28.1696417 -0.219639E-09  0.153E-04    2.27     159.0  T
     SCC iter.                  ...        0 min,  1.115 sec
     gradient                   ...        0 min,  0.227 sec
 * total energy  :   -27.8466438 Eh     change       -0.4827727E-02 Eh
   gradient norm :     0.1004695 Eh/α   predicted    -0.3750551E-02 ( -22.31%)
   displ. norm   :     0.5124792 α      lambda       -0.7765947E-02
   maximum displ.:     0.3869026 α      in ANC's #3, #6, #5, ...

........................................................................
.............................. CYCLE   12 ..............................
........................................................................

 iter      E             dE          RMSdq      gap      omega  full diag
   1    -28.1727458 -0.281727E+02  0.306E-01    2.28       0.0  T
   2    -28.1728226 -0.768069E-04  0.162E-01    2.27       1.0  T
   3    -28.1728134  0.917385E-05  0.786E-02    2.27       1.0  T
   4    -28.1728232 -0.977450E-05  0.389E-02    2.27       1.0  T
   5    -28.1728397 -0.164862E-04  0.144E-02    2.27       1.7  T
   6    -28.1728397 -0.551914E-07  0.639E-03    2.27       3.8  T
   7    -28.1728402 -0.532611E-06  0.240E-03    2.27      10.1  T
   8    -28.1728403 -0.180856E-07  0.121E-03    2.27      20.0  T
   9    -28.1728403 -0.271222E-08  0.356E-04    2.27      68.1  T
  10    -28.1728403 -0.343736E-09  0.146E-04    2.27     166.3  T
     SCC iter.                  ...        0 min,  1.219 sec
     gradient                   ...        0 min,  0.309 sec
 * total energy  :   -27.8528829 Eh     change       -0.6239070E-02 Eh
   gradient norm :     0.0818961 Eh/α   predicted    -0.4902789E-02 ( -21.42%)
   displ. norm   :     0.5526353 α      lambda       -0.9186205E-02
   maximum displ.:     0.3717759 α      in ANC's #3, #2, #6, ...

........................................................................
.............................. CYCLE   13 ..............................
........................................................................

 iter      E             dE          RMSdq      gap      omega  full diag
   1    -28.1802460 -0.281802E+02  0.276E-01    2.22       0.0  T
   2    -28.1802617 -0.156472E-04  0.151E-01    2.22       1.0  T
   3    -28.1802346  0.270466E-04  0.520E-02    2.22       1.0  T
   4    -28.1802665 -0.318690E-04  0.245E-02    2.22       1.0  T
   5    -28.1802676 -0.106931E-05  0.138E-02    2.22       1.8  T
   6    -28.1802698 -0.228594E-05  0.405E-03    2.22       6.0  T
   7    -28.1802700 -0.158849E-06  0.177E-03    2.22      13.7  T
   8    -28.1802700 -0.333624E-08  0.455E-04    2.22      53.3  T
   9    -28.1802700 -0.205173E-09  0.196E-04    2.22     124.0  T
     SCC iter.                  ...        0 min,  1.010 sec
     gradient                   ...        0 min,  0.354 sec
 * total energy  :   -27.8599816 Eh     change       -0.7098672E-02 Eh
   gradient norm :     0.0522944 Eh/α   predicted    -0.5995835E-02 ( -15.54%)
   displ. norm   :     0.5678656 α      lambda       -0.8231843E-02
   maximum displ.:     0.3795385 α      in ANC's #3, #6, #2, ...

........................................................................
.............................. CYCLE   14 ..............................
........................................................................

 iter      E             dE          RMSdq      gap      omega  full diag
   1    -28.1831829 -0.281832E+02  0.341E-01    2.24       0.0  T
   2    -28.1832018 -0.189257E-04  0.190E-01    2.24       1.0  T
   3    -28.1829276  0.274169E-03  0.155E-01    2.23       1.0  T
   4    -28.1832414 -0.313790E-03  0.337E-02    2.24       1.0  T
   5    -28.1832505 -0.903747E-05  0.118E-02    2.24       2.1  T
   6    -28.1832506 -0.140759E-06  0.561E-03    2.24       4.3  T
   7    -28.1832510 -0.449990E-06  0.157E-03    2.24      15.4  T
   8    -28.1832511 -0.772583E-08  0.697E-04    2.24      34.8  T
   9    -28.1832511 -0.613156E-09  0.225E-04    2.24     107.8  T
     SCC iter.                  ...        0 min,  2.380 sec
     gradient                   ...        0 min,  0.527 sec
 * total energy  :   -27.8657404 Eh     change       -0.5758865E-02 Eh
   gradient norm :     0.0456295 Eh/α   predicted    -0.5443181E-02 (  -5.48%)
   displ. norm   :     0.4035586 α      lambda       -0.5313123E-02
   maximum displ.:     0.1735649 α      in ANC's #3, #2, #1, ...

........................................................................
.............................. CYCLE   15 ..............................
........................................................................

 iter      E             dE          RMSdq      gap      omega  full diag
   1    -28.1937438 -0.281937E+02  0.275E-01    2.27       0.0  T
   2    -28.1938460 -0.102179E-03  0.175E-01    2.27       1.0  T
   3    -28.1938186  0.273536E-04  0.107E-01    2.27       1.0  T
   4    -28.1938339 -0.152900E-04  0.632E-02    2.27       1.0  T
   5    -28.1938913 -0.573365E-04  0.133E-02    2.27       1.8  T
   6    -28.1938924 -0.116780E-05  0.812E-03    2.27       3.0  T
   7    -28.1938930 -0.530488E-06  0.138E-03    2.27      17.6  T
   8    -28.1938930 -0.439800E-08  0.798E-04    2.27      30.4  T
   9    -28.1938930 -0.120579E-08  0.284E-04    2.27      85.3  T
     SCC iter.                  ...        0 min,  3.232 sec
     gradient                   ...        0 min,  0.560 sec
 * total energy  :   -27.8685728 Eh     change       -0.2832380E-02 Eh
   gradient norm :     0.0495151 Eh/α   predicted    -0.3089203E-02 (   9.07%)
   displ. norm   :     0.4805703 α      lambda       -0.4184574E-02
   maximum displ.:     0.3627089 α      in ANC's #3, #4, #6, ...

........................................................................
.............................. CYCLE   16 ..............................
........................................................................

 iter      E             dE          RMSdq      gap      omega  full diag
   1    -28.1725939 -0.281726E+02  0.365E-01    2.28       0.0  T
   2    -28.1724364  0.157498E-03  0.285E-01    2.25       1.0  T
   3    -28.1730555 -0.619072E-03  0.161E-01    2.26       1.0  T
   4    -28.1732212 -0.165664E-03  0.576E-02    2.25       1.0  T
   5    -28.1732313 -0.101673E-04  0.113E-02    2.25       2.1  T
   6    -28.1732320 -0.614676E-06  0.635E-03    2.25       3.8  T
   7    -28.1732323 -0.317244E-06  0.160E-03    2.25      15.1  T
   8    -28.1732323 -0.152094E-07  0.616E-04    2.25      39.4  T
   9    -28.1732323 -0.108171E-08  0.174E-04    2.25     139.2  T
     SCC iter.                  ...        0 min,  5.980 sec
     gradient                   ...        0 min,  0.540 sec
 * total energy  :   -27.8690033 Eh     change       -0.4305005E-03 Eh
   gradient norm :     0.0424016 Eh/α   predicted    -0.2575505E-02 ( 498.26%)
   displ. norm   :     0.2756550 α      lambda       -0.5124907E-02
   maximum displ.:     0.1750186 α      in ANC's #3, #2, #5, ...

........................................................................
.............................. CYCLE   17 ..............................
........................................................................

 iter      E             dE          RMSdq      gap      omega  full diag
   1    -28.1978265 -0.281978E+02  0.264E-01    2.29       0.0  T
   2    -28.1978596 -0.331139E-04  0.165E-01    2.29       1.0  T
   3    -28.1978091  0.505098E-04  0.145E-01    2.30       1.0  T
   4    -28.1980126 -0.203516E-03  0.267E-02    2.29       1.0  T
   5    -28.1980143 -0.163738E-05  0.981E-03    2.29       2.5  T
   6    -28.1980145 -0.223698E-06  0.668E-03    2.29       3.6  T
   7    -28.1980150 -0.452475E-06  0.164E-03    2.29      14.8  T
   8    -28.1980150 -0.470309E-08  0.358E-04    2.29      67.8  T
   9    -28.1980150 -0.192912E-09  0.149E-04    2.29     163.0  T
     SCC iter.                  ...        0 min,  3.723 sec
     gradient                   ...        0 min,  0.485 sec
 * total energy  :   -27.8689891 Eh     change        0.1427562E-04 Eh
   gradient norm :     0.0441154 Eh/α   predicted    -0.2757161E-02 (*******%)
   displ. norm   :     0.3235769 α      lambda       -0.6562059E-02
   maximum displ.:     0.2828318 α      in ANC's #2, #6, #3, ...

........................................................................
.............................. CYCLE   18 ..............................
........................................................................

 iter      E             dE          RMSdq      gap      omega  full diag
   1    -28.1952052 -0.281952E+02  0.319E-01    2.29       0.0  T
   2    -28.1952711 -0.658924E-04  0.191E-01    2.30       1.0  T
   3    -28.1950421  0.228976E-03  0.174E-01    2.30       1.0  T
   4    -28.1953984 -0.356337E-03  0.351E-02    2.30       1.0  T
   5    -28.1954004 -0.194131E-05  0.138E-02    2.30       1.8  T
   6    -28.1954005 -0.834597E-07  0.836E-03    2.30       2.9  T
   7    -28.1954013 -0.868972E-06  0.211E-03    2.30      11.5  T
   8    -28.1954013 -0.141456E-07  0.877E-04    2.30      27.6  T
   9    -28.1954013 -0.314099E-08  0.274E-04    2.30      88.5  T
     SCC iter.                  ...        0 min,  2.085 sec
     gradient                   ...        0 min,  0.493 sec
 * total energy  :   -27.8698665 Eh     change       -0.8774100E-03 Eh
   gradient norm :     0.0376891 Eh/α   predicted    -0.3624559E-02 ( 313.10%)
   displ. norm   :     0.2749745 α      lambda       -0.4743348E-02
   maximum displ.:     0.1744047 α      in ANC's #2, #3, #6, ...

........................................................................
.............................. CYCLE   19 ..............................
........................................................................

 iter      E             dE          RMSdq      gap      omega  full diag
   1    -28.1869115 -0.281869E+02  0.268E-01    2.29       0.0  T
   2    -28.1869973 -0.857313E-04  0.159E-01    2.31       1.0  T
   3    -28.1869232  0.740193E-04  0.116E-01    2.30       1.0  T
   4    -28.1870192 -0.959211E-04  0.580E-02    2.31       1.0  T
   5    -28.1870545 -0.353528E-04  0.855E-03    2.30       2.8  T
   6    -28.1870548 -0.233437E-06  0.292E-03    2.30       8.3  T
   7    -28.1870548 -0.137053E-07  0.121E-03    2.30      20.0  T
   8    -28.1870548 -0.604105E-08  0.571E-04    2.30      42.5  T
   9    -28.1870548 -0.304496E-08  0.261E-04    2.30      92.8  T
     SCC iter.                  ...        0 min,  2.254 sec
     gradient                   ...        0 min,  0.564 sec
 * total energy  :   -27.8702181 Eh     change       -0.3516833E-03 Eh
   gradient norm :     0.0431109 Eh/α   predicted    -0.2550994E-02 ( 625.37%)
   displ. norm   :     0.1818184 α      lambda       -0.3261533E-02
   maximum displ.:     0.1141626 α      in ANC's #6, #10, #5, ...

........................................................................
.............................. CYCLE   20 ..............................
........................................................................

 iter      E             dE          RMSdq      gap      omega  full diag
   1    -28.1898132 -0.281898E+02  0.266E-01    2.31       0.0  T
   2    -28.1898330 -0.197340E-04  0.182E-01    2.28       1.0  T
   3    -28.1899338 -0.100851E-03  0.122E-01    2.29       1.0  T
   4    -28.1900306 -0.968221E-04  0.527E-02    2.28       1.0  T
   5    -28.1900476 -0.169895E-04  0.651E-03    2.28       3.7  T
   6    -28.1900476 -0.331003E-07  0.413E-03    2.29       5.9  T
   7    -28.1900478 -0.178333E-06  0.180E-03    2.29      13.5  T
   8    -28.1900478 -0.175262E-07  0.651E-04    2.29      37.2  T
   9    -28.1900478 -0.107377E-08  0.305E-04    2.29      79.5  T
     SCC iter.                  ...        0 min,  2.771 sec
     gradient                   ...        0 min,  0.410 sec
 * total energy  :   -27.8715545 Eh     change       -0.1336330E-02 Eh
   gradient norm :     0.0140623 Eh/α   predicted    -0.1684674E-02 (  26.07%)
   displ. norm   :     0.0837329 α      lambda       -0.5936286E-03
   maximum displ.:     0.0355227 α      in ANC's #2, #9, #6, ...
 * RMSD in coord.:     1.1758747 α      energy gain  -0.1677478E+00 Eh

generating ANC from exact Hessian ...
Using Lindh-Hessian (1995)
 Shifting diagonal of input Hessian by    6.5931874954404694E-003
 Lowest  eigenvalues of input Hessian
    0.000000    0.000000    0.000000    0.000000    0.000000    0.000000
    0.010000    0.014596    0.017317    0.019124    0.022878    0.027306
    0.029888    0.036825    0.040399    0.061756    0.073784    0.077173
 Highest eigenvalues
    1.418077    1.496984    1.842611    2.073500    2.256069    2.543607


........................................................................
.............................. CYCLE   21 ..............................
........................................................................

 iter      E             dE          RMSdq      gap      omega  full diag
   1    -28.1925074 -0.281925E+02  0.109E-01    2.30       0.0  T
   2    -28.1925217 -0.143613E-04  0.614E-02    2.31       1.0  T
   3    -28.1925161  0.562340E-05  0.410E-02    2.31       1.0  T
   4    -28.1925201 -0.398013E-05  0.260E-02    2.31       1.0  T
   5    -28.1925281 -0.800529E-05  0.399E-03    2.31       6.1  T
   6    -28.1925281 -0.417774E-08  0.168E-03    2.31      14.5  T
   7    -28.1925281 -0.215300E-07  0.864E-04    2.31      28.1  T
   8    -28.1925281 -0.471940E-08  0.403E-04    2.31      60.2  T
     SCC iter.                  ...        0 min,  1.684 sec
     gradient                   ...        0 min,  0.564 sec
 * total energy  :   -27.8717591 Eh     change       -0.2046014E-03 Eh
   gradient norm :     0.0125986 Eh/α   predicted     0.0000000E+00 (-100.00%)
   displ. norm   :     0.0658748 α      lambda       -0.2847893E-03
   maximum displ.:     0.0476364 α      in ANC's #6, #2, #16, ...

........................................................................
.............................. CYCLE   22 ..............................
........................................................................

 iter      E             dE          RMSdq      gap      omega  full diag
   1    -28.1923158 -0.281923E+02  0.566E-02    2.31       0.0  T
   2    -28.1923165 -0.755042E-06  0.325E-02    2.31       1.0  T
   3    -28.1923101  0.640180E-05  0.238E-02    2.31       1.0  T
   4    -28.1923174 -0.732842E-05  0.617E-03    2.31       3.9  T
   5    -28.1923177 -0.215364E-06  0.255E-03    2.31       9.5  T
   6    -28.1923176  0.119017E-07  0.127E-03    2.31      19.1  T
   7    -28.1923177 -0.209690E-07  0.457E-04    2.31      53.0  T
   8    -28.1923177 -0.243919E-09  0.161E-04    2.31     151.1  T
     SCC iter.                  ...        0 min,  2.116 sec
     gradient                   ...        0 min,  0.416 sec
 * total energy  :   -27.8719637 Eh     change       -0.2046080E-03 Eh
   gradient norm :     0.0059269 Eh/α   predicted    -0.1430140E-03 ( -30.10%)
   displ. norm   :     0.0963187 α      lambda       -0.1643861E-03
   maximum displ.:     0.0676326 α      in ANC's #6, #2, #1, ...

........................................................................
.............................. CYCLE   23 ..............................
........................................................................

 iter      E             dE          RMSdq      gap      omega  full diag
   1    -28.1917967 -0.281918E+02  0.606E-02    2.31       0.0  T
   2    -28.1917972 -0.447113E-06  0.360E-02    2.31       1.0  T
   3    -28.1917890  0.816562E-05  0.306E-02    2.31       1.0  T
   4    -28.1918004 -0.114268E-04  0.743E-03    2.31       3.3  T
   5    -28.1918007 -0.256387E-06  0.350E-03    2.31       6.9  T
   6    -28.1918006  0.367457E-07  0.233E-03    2.31      10.4  T
   7    -28.1918007 -0.695668E-07  0.606E-04    2.31      40.1  T
   8    -28.1918007 -0.289770E-09  0.208E-04    2.31     116.4  T
     SCC iter.                  ...        0 min,  1.136 sec
     gradient                   ...        0 min,  0.413 sec
 * total energy  :   -27.8720686 Eh     change       -0.1049553E-03 Eh
   gradient norm :     0.0025025 Eh/α   predicted    -0.8295328E-04 ( -20.96%)
   displ. norm   :     0.0834893 α      lambda       -0.6444058E-04
   maximum displ.:     0.0536122 α      in ANC's #2, #6, #1, ...

........................................................................
.............................. CYCLE   24 ..............................
........................................................................

 iter      E             dE          RMSdq      gap      omega  full diag
   1    -28.1915488 -0.281915E+02  0.384E-02    2.31       0.0  T
   2    -28.1915486  0.212413E-06  0.233E-02    2.31       1.0  T
   3    -28.1915461  0.247745E-05  0.201E-02    2.31       1.2  T
   4    -28.1915507 -0.463289E-05  0.478E-03    2.31       5.1  T
   5    -28.1915508 -0.107532E-06  0.250E-03    2.31       9.7  T
   6    -28.1915508 -0.137996E-07  0.115E-03    2.31      21.1  T
   7    -28.1915509 -0.131897E-07  0.380E-04    2.31      63.9  T
   8    -28.1915509 -0.958735E-10  0.108E-04    2.31     224.1  T
     SCC iter.                  ...        0 min,  1.373 sec
     gradient                   ...        0 min,  0.372 sec
 * total energy  :   -27.8721198 Eh     change       -0.5120271E-04 Eh
   gradient norm :     0.0041790 Eh/α   predicted    -0.3244563E-04 ( -36.63%)
   displ. norm   :     0.1776297 α      lambda       -0.1150165E-03
   maximum displ.:     0.1258101 α      in ANC's #2, #1, #6, ...

........................................................................
.............................. CYCLE   25 ..............................
........................................................................

 iter      E             dE          RMSdq      gap      omega  full diag
   1    -28.1910580 -0.281911E+02  0.725E-02    2.32       0.0  T
   2    -28.1910570  0.100797E-05  0.438E-02    2.32       1.0  T
   3    -28.1910476  0.935790E-05  0.382E-02    2.32       1.0  T
   4    -28.1910646 -0.169549E-04  0.860E-03    2.32       2.8  T
   5    -28.1910650 -0.390809E-06  0.460E-03    2.32       5.3  T
   6    -28.1910651 -0.141522E-06  0.105E-03    2.32      23.1  T
   7    -28.1910651 -0.324851E-08  0.574E-04    2.32      42.2  T
   8    -28.1910651 -0.219281E-09  0.164E-04    2.32     148.2  T
     SCC iter.                  ...        0 min,  1.449 sec
     gradient                   ...        0 min,  0.296 sec
 * total energy  :   -27.8722008 Eh     change       -0.8096163E-04 Eh
   gradient norm :     0.0066036 Eh/α   predicted    -0.5932123E-04 ( -26.73%)
   displ. norm   :     0.1630200 α      lambda       -0.8897098E-04
   maximum displ.:     0.1196694 α      in ANC's #2, #1, #6, ...

........................................................................
.............................. CYCLE   26 ..............................
........................................................................

 iter      E             dE          RMSdq      gap      omega  full diag
   1    -28.1909541 -0.281910E+02  0.630E-02    2.32       0.0  T
   2    -28.1909541  0.215875E-07  0.374E-02    2.32       1.0  T
   3    -28.1909461  0.797315E-05  0.324E-02    2.32       1.0  T
   4    -28.1909584 -0.123045E-04  0.729E-03    2.32       3.3  T
   5    -28.1909587 -0.294078E-06  0.376E-03    2.32       6.5  T
   6    -28.1909588 -0.150709E-06  0.156E-03    2.32      15.5  T
   7    -28.1909589 -0.984657E-08  0.425E-04    2.32      57.0  T
   8    -28.1909589 -0.118302E-09  0.959E-05    2.32     253.0  T
     SCC iter.                  ...        0 min,  1.346 sec
     gradient                   ...        0 min,  0.295 sec
 * total energy  :   -27.8722675 Eh     change       -0.6667775E-04 Eh
   gradient norm :     0.0064121 Eh/α   predicted    -0.4566748E-04 ( -31.51%)
   displ. norm   :     0.1652980 α      lambda       -0.9823231E-04
   maximum displ.:     0.1169120 α      in ANC's #2, #1, #7, ...

........................................................................
.............................. CYCLE   27 ..............................
........................................................................

 iter      E             dE          RMSdq      gap      omega  full diag
   1    -28.1916815 -0.281917E+02  0.652E-02    2.32       0.0  T
   2    -28.1916835 -0.197812E-05  0.389E-02    2.32       1.0  T
   3    -28.1916774  0.615651E-05  0.298E-02    2.32       1.0  T
   4    -28.1916860 -0.860842E-05  0.106E-02    2.32       2.3  T
   5    -28.1916871 -0.110992E-05  0.308E-03    2.32       7.9  T
   6    -28.1916872 -0.696454E-07  0.173E-03    2.32      14.0  T
   7    -28.1916872 -0.230753E-07  0.318E-04    2.32      76.3  T
   8    -28.1916872 -0.254659E-10  0.144E-04    2.32     168.5  T
     SCC iter.                  ...        0 min,  1.425 sec
     gradient                   ...        0 min,  0.413 sec
 * total energy  :   -27.8723357 Eh     change       -0.6822804E-04 Eh
   gradient norm :     0.0034487 Eh/α   predicted    -0.5045873E-04 ( -26.04%)
   displ. norm   :     0.1257793 α      lambda       -0.4654582E-04
   maximum displ.:     0.0832404 α      in ANC's #2, #1, #7, ...

........................................................................
.............................. CYCLE   28 ..............................
........................................................................

 iter      E             dE          RMSdq      gap      omega  full diag
   1    -28.1922638 -0.281923E+02  0.475E-02    2.32       0.0  T
   2    -28.1922649 -0.109120E-05  0.280E-02    2.32       1.0  T
   3    -28.1922617  0.320994E-05  0.217E-02    2.32       1.1  T
   4    -28.1922661 -0.439048E-05  0.796E-03    2.32       3.0  T
   5    -28.1922667 -0.643459E-06  0.196E-03    2.32      12.4  T
   6    -28.1922667 -0.164012E-07  0.123E-03    2.32      19.6  T
   7    -28.1922667 -0.144902E-07  0.217E-04    2.32     111.6  T
   8    -28.1922667 -0.135891E-10  0.111E-04    2.32     217.8  T
     SCC iter.                  ...        0 min,  1.303 sec
     gradient                   ...        0 min,  0.363 sec
 * total energy  :   -27.8723687 Eh     change       -0.3294399E-04 Eh
   gradient norm :     0.0019173 Eh/α   predicted    -0.2364282E-04 ( -28.23%)
   displ. norm   :     0.1502217 α      lambda       -0.2310396E-04
   maximum displ.:     0.0951183 α      in ANC's #1, #2, #7, ...

........................................................................
.............................. CYCLE   29 ..............................
........................................................................

 iter      E             dE          RMSdq      gap      omega  full diag
   1    -28.1927370 -0.281927E+02  0.532E-02    2.32       0.0  T
   2    -28.1927380 -0.102622E-05  0.302E-02    2.32       1.0  T
   3    -28.1927332  0.480054E-05  0.236E-02    2.32       1.0  T
   4    -28.1927391 -0.585314E-05  0.772E-03    2.32       3.1  T
   5    -28.1927397 -0.583398E-06  0.215E-03    2.32      11.3  T
   6    -28.1927397 -0.131520E-07  0.141E-03    2.32      17.2  T
   7    -28.1927397 -0.197850E-07  0.278E-04    2.32      87.3  T
   8    -28.1927397 -0.185310E-10  0.125E-04    2.32     193.6  T
     SCC iter.                  ...        0 min,  1.814 sec
     gradient                   ...        0 min,  0.334 sec
 * total energy  :   -27.8723884 Eh     change       -0.1975258E-04 Eh
   gradient norm :     0.0018620 Eh/α   predicted    -0.1166839E-04 ( -40.93%)
   displ. norm   :     0.0418785 α      lambda       -0.6352969E-05
   maximum displ.:     0.0299300 α      in ANC's #1, #2, #4, ...

........................................................................
.............................. CYCLE   30 ..............................
........................................................................

 iter      E             dE          RMSdq      gap      omega  full diag
   1    -28.1930711 -0.281931E+02  0.143E-02    2.32       0.0  T
   2    -28.1930711 -0.215916E-07  0.855E-03    2.32       2.8  T
   3    -28.1930705  0.595998E-06  0.692E-03    2.32       3.5  T
   4    -28.1930712 -0.672943E-06  0.890E-04    2.32      27.2  T
   5    -28.1930712 -0.524308E-08  0.331E-04    2.32      73.2  T
     SCC iter.                  ...        0 min,  1.031 sec
     gradient                   ...        0 min,  0.322 sec
 * total energy  :   -27.8723954 Eh     change       -0.7017553E-05 Eh
   gradient norm :     0.0013646 Eh/α   predicted    -0.3180237E-05 ( -54.68%)
   displ. norm   :     0.1900071 α      lambda       -0.1618955E-04
   maximum displ.:     0.1216410 α      in ANC's #2, #1, #4, ...

........................................................................
.............................. CYCLE   31 ..............................
........................................................................

 iter      E             dE          RMSdq      gap      omega  full diag
   1    -28.1916080 -0.281916E+02  0.610E-02    2.31       0.0  T
   2    -28.1916090 -0.946099E-06  0.355E-02    2.31       1.0  T
   3    -28.1916055  0.348534E-05  0.166E-02    2.31       1.5  T
   4    -28.1916094 -0.391776E-05  0.377E-03    2.31       6.4  T
   5    -28.1916095 -0.475867E-07  0.254E-03    2.31       9.5  T
   6    -28.1916095 -0.485921E-07  0.111E-03    2.31      21.9  T
   7    -28.1916095 -0.115684E-07  0.247E-04    2.31      98.2  T
   8    -28.1916095 -0.265672E-10  0.102E-04    2.31     238.3  T
     SCC iter.                  ...        0 min,  1.192 sec
     gradient                   ...        0 min,  0.287 sec
 * total energy  :   -27.8723892 Eh     change        0.6213129E-05 Eh
   gradient norm :     0.0033420 Eh/α   predicted    -0.8223531E-05 (-232.36%)
   displ. norm   :     0.0621135 α      lambda       -0.2812296E-04
   maximum displ.:     0.0434938 α      in ANC's #2, #1, #6, ...

........................................................................
.............................. CYCLE   32 ..............................
........................................................................

 iter      E             dE          RMSdq      gap      omega  full diag
   1    -28.1925819 -0.281926E+02  0.256E-02    2.31       0.0  T
   2    -28.1925821 -0.252978E-06  0.140E-02    2.31       1.7  T
   3    -28.1925807  0.140699E-05  0.119E-02    2.31       2.0  T
   4    -28.1925825 -0.178727E-05  0.289E-03    2.31       8.4  T
   5    -28.1925825 -0.256609E-07  0.161E-03    2.31      15.1  T
   6    -28.1925825 -0.241943E-07  0.694E-04    2.31      35.0  T
   7    -28.1925825 -0.278392E-08  0.206E-04    2.31     118.0  T
     SCC iter.                  ...        0 min,  1.288 sec
     gradient                   ...        0 min,  0.285 sec
 * total energy  :   -27.8724070 Eh     change       -0.1778072E-04 Eh
   gradient norm :     0.0010546 Eh/α   predicted    -0.1411696E-04 ( -20.61%)
   displ. norm   :     0.0391344 α      lambda       -0.6586411E-05
   maximum displ.:     0.0275579 α      in ANC's #3, #6, #7, ...

........................................................................
.............................. CYCLE   33 ..............................
........................................................................

 iter      E             dE          RMSdq      gap      omega  full diag
   1    -28.1931322 -0.281931E+02  0.210E-02    2.31       0.0  T
   2    -28.1931322 -0.492811E-07  0.108E-02    2.31       2.2  T
   3    -28.1931313  0.870665E-06  0.106E-02    2.31       2.3  T
   4    -28.1931327 -0.134790E-05  0.249E-03    2.31       9.7  T
   5    -28.1931327 -0.303244E-08  0.145E-03    2.31      16.7  T
   6    -28.1931327 -0.159572E-07  0.704E-04    2.31      34.4  T
   7    -28.1931327 -0.295666E-08  0.211E-04    2.31     115.1  T
     SCC iter.                  ...        0 min,  1.115 sec
     gradient                   ...        0 min,  0.223 sec
 * total energy  :   -27.8724126 Eh     change       -0.5602051E-05 Eh
   gradient norm :     0.0011273 Eh/α   predicted    -0.3295272E-05 ( -41.18%)
   displ. norm   :     0.0341694 α      lambda       -0.3415389E-05
   maximum displ.:     0.0260008 α      in ANC's #3, #4, #5, ...

........................................................................
.............................. CYCLE   34 ..............................
........................................................................

 iter      E             dE          RMSdq      gap      omega  full diag
   1    -28.1930963 -0.281931E+02  0.147E-02    2.31       0.0  T
   2    -28.1930964 -0.102364E-06  0.746E-03    2.31       3.3  T
   3    -28.1930962  0.242155E-06  0.595E-03    2.31       4.1  T
   4    -28.1930965 -0.318297E-06  0.251E-03    2.31       9.7  T
   5    -28.1930966 -0.521284E-07  0.806E-04    2.31      30.1  T
   6    -28.1930966  0.885358E-09  0.463E-04    2.31      52.4  T
     SCC iter.                  ...        0 min,  0.794 sec
     gradient                   ...        0 min,  0.258 sec
 * total energy  :   -27.8724172 Eh     change       -0.4638505E-05 Eh
   gradient norm :     0.0009570 Eh/α   predicted    -0.1706682E-05 ( -63.21%)
   displ. norm   :     0.1916357 α      lambda       -0.1734613E-04
   maximum displ.:     0.1370125 α      in ANC's #3, #4, #2, ...

   *** GEOMETRY OPTIMIZATION CONVERGED AFTER 34 ITERATIONS ***

------------------------------------------------------------------------
 total energy gain   :        -0.1686106 Eh     -105.8047 kcal/mol
 total RMSD          :         1.2790766 a0        0.6769 Å
 total power (kW/mol):       -13.0202064 (step)   -5.5031 (real)
------------------------------------------------------------------------

 ANCopt (total)                0 d,  0 h,  1 min, 20.443 sec
 optimizer setup                ...        0 min,  0.000 sec (  0.000%)
 model hessian                  ...        0 min,  0.004 sec (  0.005%)
 ANC generation                 ...        0 min,  0.001 sec (  0.001%)
 coordinate transformation      ...        0 min,  0.000 sec (  0.000%)
 single point calculation       ...        1 min, 19.186 sec ( 98.438%)
 optimization log               ...        0 min,  0.052 sec (  0.064%)
 hessian update                 ...        0 min,  1.190 sec (  1.480%)
 rational function              ...        0 min,  0.005 sec (  0.006%)

================
 final structure:
================
17
 xtb: 6.7.1 (edcfbbe)
C           -2.38160222113899       -1.23274921871507       -0.43510370945961
C           -1.20765600929417       -0.43309906736689       -0.00724861625607
C           -1.04995329360901        0.89197046499625       -0.15655565706439
C            0.15624961866238        1.55901182786348        0.18218462250270
N            1.26974493260050        0.89464629106711        0.40980153223658
N            1.39423810112686       -0.39564795146395        0.46728152964366
C            2.52703230091654        1.61486291158169        0.52795910410393
S            0.07792507976302       -1.34234645155729        0.91974457641671
O           -0.23056302338061       -1.00628200194060        2.31365964564535
H           -2.85394972573346       -1.68806953466247        0.43515232373782
H           -2.06250904866132       -2.04038711916328       -1.09359973707746
H           -3.11422064251792       -0.61878093751872       -0.95490012946668
H           -1.84274030931774        1.50253433598357       -0.57168783298459
H            0.21012116378078        2.63420616363583        0.16257538887461
H            3.03247599464052        1.62840488233677       -0.43847222128705
H            3.15865087521292        1.08956854747226        1.24166523077181
H            2.35011292694968        2.63451613745141        0.86232182966239

 Bond Distances (Angstroems)
 ---------------------------
C1-C2=1.4835         C1-H10=1.0899        C1-H11=1.0898        C1-H12=1.0881        C2-C1=1.4835         C2-C3=1.3427         
C2-S8=1.8272         C3-C2=1.3427         C3-C4=1.4194         C3-H13=1.0833        C4-C3=1.4194         C4-N5=1.3165         
C4-H14=1.0767        N5-C4=1.3165         N5-N6=1.2976         N5-C7=1.4538         N6-N5=1.2976         N6-S8=1.6833         
C7-N5=1.4538         C7-H15=1.0907        C7-H16=1.0882        C7-H17=1.0876        S8-C2=1.8272         S8-N6=1.6833         
S8-O9=1.4667         O9-S8=1.4667         H10-C1=1.0899        H11-C1=1.0898        H12-C1=1.0881        H13-C3=1.0833        
H14-C4=1.0767        H15-C7=1.0907        H16-C7=1.0882        H17-C7=1.0876        
 C  H  Rav=1.0868 sigma=0.0044  Rmin=1.0767  Rmax=1.0907     8
 C  C  Rav=1.4152 sigma=0.0575  Rmin=1.3427  Rmax=1.4835     3
 N  C  Rav=1.3851 sigma=0.0687  Rmin=1.3165  Rmax=1.4538     2
 N  N  Rav=1.2976 sigma=0.0000  Rmin=1.2976  Rmax=1.2976     1
 S  C  Rav=1.8272 sigma=0.0000  Rmin=1.8272  Rmax=1.8272     1
 S  N  Rav=1.6833 sigma=0.0000  Rmin=1.6833  Rmax=1.6833     1
 S  O  Rav=1.4667 sigma=0.0000  Rmin=1.4667  Rmax=1.4667     1

 selected bond angles (degree)
 --------------------
H10-C1-C2=109.75               H11-C1-C2=110.00               H11-C1-H10=107.44              H12-C1-C2=111.50               
H12-C1-H10=108.99              H12-C1-H11=109.07              C3-C2-C1=126.36                S8-C2-C1=115.78                
S8-C2-C3=117.70                C4-C3-C2=122.48                H13-C3-C2=120.85               H13-C3-C4=116.65               
N5-C4-C3=121.53                H14-C4-C3=120.49               H14-C4-N5=117.70               N6-N5-C4=126.20                
C7-N5-C4=119.71                C7-N5-N6=113.96                S8-N6-N5=119.74                H15-C7-N5=109.57               
H16-C7-N5=108.43               H16-C7-H15=108.55              H17-C7-N5=110.41               H17-C7-H15=109.64              
H17-C7-H16=110.20              N6-S8-C2= 97.70                O9-S8-C2=102.72                O9-S8-N6=106.92                

 selected dihedral angles (degree)
 ---------------------------------
C3-C2-C1-H10=242.36           C3-C2-C1-H11=124.35           C3-C2-C1-H12=  3.22           S8-C2-C1-H10= 57.53           
S8-C2-C1-H11=299.52           S8-C2-C1-H12=178.39           C4-C3-C2-C1=185.43            C4-C3-C2-S8= 10.34            
H13-C3-C2-C1=  3.80           H13-C3-C2-S8=188.71           N5-C4-C3-C2= 13.66            N5-C4-C3-H13=195.22           
H14-C4-C3-C2=187.41           H14-C4-C3-H13=  8.97          N6-N5-C4-C3=354.00            N6-N5-C4-H14=180.09           
C7-N5-C4-C3=169.53            C7-N5-C4-H14=355.62           S8-N6-N5-C4=332.98            S8-N6-N5-C7=157.23            
H15-C7-N5-C4=265.34           H15-C7-N5-N6= 81.39           H16-C7-N5-C4=147.02           H16-C7-N5-N6=323.08           
H17-C7-N5-C4= 26.20           H17-C7-N5-N6=202.25           N6-S8-C2-C1=151.76            N6-S8-C2-C3=327.38            
O9-S8-C2-C1=261.13            O9-S8-C2-C3= 76.74            C2-S8-N6-N5= 40.81            O9-S8-N6-N5=294.95            
           -------------------------------------------------
          |                Final Singlepoint                |
           -------------------------------------------------

          ...................................................
          :                      SETUP                      :
          :.................................................:
          :  # basis functions                  50          :
          :  # atomic orbitals                  49          :
          :  # shells                           27          :
          :  # electrons                        50          :
          :  max. iterations                   250          :
          :  Hamiltonian                  GFN2-xTB          :
          :  restarted?                      false          :
          :  GBSA solvation                  false          :
          :  PC potential                    false          :
          :  electronic temp.          300.0000000     K    :
          :  accuracy                    1.0000000          :
          :  -> integral cutoff          0.2500000E+02      :
          :  -> integral neglect         0.1000000E-07      :
          :  -> SCF convergence          0.1000000E-05 Eh   :
          :  -> wf. convergence          0.1000000E-03 e    :
          :  Broyden damping             0.4000000          :
          :  net charge                          0          :
          :  unpaired electrons                  0          :
          ...................................................

 iter      E             dE          RMSdq      gap      omega  full diag
   1    -28.1930966 -0.281931E+02  0.123E-04    2.31       0.0  T
   2    -28.1930966 -0.550671E-11  0.882E-05    2.31     275.0  T
   3    -28.1930966  0.426148E-10  0.726E-05    2.31     333.9  T

   *** convergence criteria satisfied after 3 iterations ***

         #    Occupation            Energy/Eh            Energy/eV
      -------------------------------------------------------------
         1        2.0000           -0.7346491             -19.9908
       ...           ...                  ...                  ...
        19        2.0000           -0.4659943             -12.6804
        20        2.0000           -0.4583473             -12.4723
        21        2.0000           -0.4359761             -11.8635
        22        2.0000           -0.4170423             -11.3483
        23        2.0000           -0.3765753             -10.2471
        24        2.0000           -0.3676589             -10.0045
        25        2.0000           -0.3610948              -9.8259 (HOMO)
        26                         -0.2761210              -7.5136 (LUMO)
        27                         -0.1838939              -5.0040
        28                         -0.1784655              -4.8563
        29                         -0.1175555              -3.1988
        30                         -0.0391529              -1.0654
       ...                                ...                  ...
        49                          0.9482739              25.8038
      -------------------------------------------------------------
                  HL-Gap            0.0849739 Eh            2.3123 eV
             Fermi-level           -0.3186079 Eh           -8.6698 eV

 SCC (total)                   0 d,  0 h,  0 min,  0.838 sec
 SCC setup                      ...        0 min,  0.040 sec (  4.789%)
 Dispersion                     ...        0 min,  0.033 sec (  3.935%)
 classical contributions        ...        0 min,  0.022 sec (  2.669%)
 integral evaluation            ...        0 min,  0.092 sec ( 11.023%)
 iterations                     ...        0 min,  0.422 sec ( 50.294%)
 molecular gradient             ...        0 min,  0.229 sec ( 27.276%)
 printout                       ...        0 min,  0.000 sec (  0.012%)

         :::::::::::::::::::::::::::::::::::::::::::::::::::::
         ::                     SUMMARY                     ::
         :::::::::::::::::::::::::::::::::::::::::::::::::::::
         :: total energy             -27.872417233846 Eh    ::
         :: gradient norm              0.000960844434 Eh/a0 ::
         :: HOMO-LUMO gap              2.312256151886 eV    ::
         ::.................................................::
         :: SCC energy               -28.193074369296 Eh    ::
         :: -> isotropic ES            0.055308762714 Eh    ::
         :: -> anisotropic ES          0.000307725936 Eh    ::
         :: -> anisotropic XC          0.015772759622 Eh    ::
         :: -> dispersion             -0.015125035702 Eh    ::
         :: repulsion energy           0.320657135450 Eh    ::
         :: add. restraining           0.000000000000 Eh    ::
         :: total charge              -0.000000000000 e     ::
         :::::::::::::::::::::::::::::::::::::::::::::::::::::

           -------------------------------------------------
          |                Property Printout                |
           -------------------------------------------------

    * Orbital Energies and Occupations

         #    Occupation            Energy/Eh            Energy/eV
      -------------------------------------------------------------
         1        2.0000           -0.7346491             -19.9908
       ...           ...                  ...                  ...
        13        2.0000           -0.5089460             -13.8491
        14        2.0000           -0.5069974             -13.7961
        15        2.0000           -0.5029792             -13.6868
        16        2.0000           -0.4907452             -13.3539
        17        2.0000           -0.4869954             -13.2518
        18        2.0000           -0.4723819             -12.8542
        19        2.0000           -0.4659943             -12.6804
        20        2.0000           -0.4583473             -12.4723
        21        2.0000           -0.4359761             -11.8635
        22        2.0000           -0.4170423             -11.3483
        23        2.0000           -0.3765753             -10.2471
        24        2.0000           -0.3676589             -10.0045
        25        2.0000           -0.3610948              -9.8259 (HOMO)
        26                         -0.2761210              -7.5136 (LUMO)
        27                         -0.1838939              -5.0040
        28                         -0.1784655              -4.8563
        29                         -0.1175555              -3.1988
        30                         -0.0391529              -1.0654
        31                         -0.0018296              -0.0498
        32                          0.0537103               1.4615
        33                          0.0813418               2.2134
        34                          0.1204270               3.2770
        35                          0.1335782               3.6348
        36                          0.1458708               3.9693
       ...                                ...                  ...
        49                          0.9482739              25.8038
      -------------------------------------------------------------
                  HL-Gap            0.0849739 Eh            2.3123 eV
             Fermi-level           -0.3186079 Eh           -8.6698 eV

     #   Z          covCN         q      C6AA      α(0)
     1   6 C        3.775    -0.112    22.664     6.783
     2   6 C        2.939    -0.032    28.795     8.801
     3   6 C        2.945    -0.041    29.006     8.833
     4   6 C        2.864    -0.031    28.767     8.792
     5   7 N        2.897     0.177    18.289     6.352
     6   7 N        1.932    -0.339    29.637     8.072
     7   6 C        3.721    -0.075    22.058     6.708
     8  16 S        2.905     0.474   123.208    18.682
     9   8 O        0.860    -0.518    24.176     6.592
    10   1 H        0.925     0.064     2.153     2.295
    11   1 H        0.925     0.055     2.253     2.347
    12   1 H        0.925     0.049     2.335     2.390
    13   1 H        0.925     0.040     2.444     2.445
    14   1 H        0.926     0.043     2.409     2.427
    15   1 H        0.924     0.079     1.993     2.208
    16   1 H        0.925     0.094     1.845     2.124
    17   1 H        0.925     0.072     2.065     2.247

 Mol. C6AA /au·bohr⁶  :       3964.065861
 Mol. C8AA /au·bohr⁸  :     104441.615525
 Mol. α(0) /au        :         98.096369


Wiberg/Mayer (AO) data.
largest (>0.10) Wiberg bond orders for each atom

 ---------------------------------------------------------------------------
     #   Z sym  total        # sym  WBO       # sym  WBO       # sym  WBO
 ---------------------------------------------------------------------------
     1   6 C    3.995 --     2 C    1.044    12 H    0.980    11 H    0.965
                            10 H    0.963
     2   6 C    3.979 --     3 C    1.696     1 C    1.044     8 S    0.932
                             6 N    0.130
     3   6 C    3.990 --     2 C    1.696     4 C    1.221    13 H    0.953
     4   6 C    3.956 --     5 N    1.400     3 C    1.221    14 H    0.964
                             6 N    0.258
     5   7 N    3.778 --     4 C    1.400     6 N    1.282     7 C    0.976
     6   7 N    2.961 --     5 N    1.282     8 S    1.128     4 C    0.258
                             2 C    0.130
     7   6 C    3.960 --    17 H    0.977     5 N    0.976    16 H    0.975
                            15 H    0.968
     8  16 S    3.965 --     9 O    1.784     6 N    1.128     2 C    0.932
     9   8 O    2.015 --     8 S    1.784
    10   1 H    0.995 --     1 C    0.963
    11   1 H    0.997 --     1 C    0.965
    12   1 H    0.998 --     1 C    0.980
    13   1 H    0.998 --     3 C    0.953
    14   1 H    0.998 --     4 C    0.964
    15   1 H    0.993 --     7 C    0.968
    16   1 H    0.991 --     7 C    0.975
    17   1 H    0.995 --     7 C    0.977
 ---------------------------------------------------------------------------

Topologies differ in total number of bonds
Writing topology from bond orders to xtbtopo.mol

molecular dipole:
                 x           y           z       tot (Debye)
 q only:        0.470       0.876      -1.491
   full:        0.173       1.366      -1.504       5.182
molecular quadrupole (traceless):
                xx          xy          yy          xz          yz          zz
 q only:        7.436       6.961       6.157       3.214       5.049     -13.593
  q+dip:        6.673       7.443       6.946       3.444       5.578     -13.618
   full:        6.885       7.793       6.017       3.224       5.614     -12.902

           -------------------------------------------------
          |                Geometry Summary                 |
           -------------------------------------------------

      molecular mass/u    :      144.1948042
   center of mass at/Å    :        0.0797551      -0.1258304       0.5532091
  moments of inertia/u·Å² :        0.2035141E+03   0.4017217E+03   0.5252507E+03
rotational constants/cm⁻¹ :        0.8283277E-01   0.4196346E-01   0.3209445E-01

 * 16 selected distances

     #   Z          #   Z                                           value/Å
     1   6 C        2   6 C                                       1.4834590
     2   6 C        3   6 C                                       1.3427481
     3   6 C        4   6 C                                       1.4193713
     4   6 C        5   7 N                                       1.3164586
     5   7 N        6   7 N                                       1.2975600
     5   7 N        7   6 C                                       1.4537693
     6   7 N        8  16 S                                       1.6833423 (max)
     8  16 S        9   8 O                                       1.4666642
     1   6 C       10   1 H                                       1.0898507
     1   6 C       11   1 H                                       1.0898241
     1   6 C       12   1 H                                       1.0880604
     3   6 C       13   1 H                                       1.0833441
     4   6 C       14   1 H                                       1.0767218 (min)
     7   6 C       15   1 H                                       1.0907091
     7   6 C       16   1 H                                       1.0882338
     7   6 C       17   1 H                                       1.0875623

 * 6 distinct bonds (by element types)

   Z      Z             #   av. dist./Å        max./Å        min./Å
   1 H    6 C           8     1.0867883     1.0907091     1.0767218
   6 C    6 C           3     1.4151928     1.4834590     1.3427481
   6 C    7 N           2     1.3851139     1.4537693     1.3164586
   7 N    7 N           1     1.2975600     1.2975600     1.2975600
   7 N   16 S           1     1.6833423     1.6833423     1.6833423
   8 O   16 S           1     1.4666642     1.4666642     1.4666642


optimized geometry written to: xtbopt.xyz


           -------------------------------------------------
          | TOTAL ENERGY              -27.872417233846 Eh   |
          | GRADIENT NORM               0.000960844434 Eh/α |
          | HOMO-LUMO GAP               2.312256151886 eV   |
Note: The following floating-point exceptions are signalling: IEEE_UNDERFLOW_FLAG IEEE_DENORMAL
normal termination of xtb
           -------------------------------------------------

------------------------------------------------------------------------
 * finished run on 2026/08/20 at 02:26:41.125     
------------------------------------------------------------------------
 total:
 * wall-time:     0 d,  0 h,  1 min, 23.729 sec
 *  cpu-time:     0 d,  0 h,  6 min,  0.666 sec
 * ratio c/w:     4.308 speedup
 SCF:
 * wall-time:     0 d,  0 h,  0 min,  2.101 sec
 *  cpu-time:     0 d,  0 h,  0 min, 14.010 sec
 * ratio c/w:     6.668 speedup
 ANC optimizer:
 * wall-time:     0 d,  0 h,  1 min, 21.291 sec
 *  cpu-time:     0 d,  0 h,  5 min, 45.305 sec
 * ratio c/w:     4.248 speedup

