      -----------------------------------------------------------      
     |                   =====================                   |     
     |                           x T B                           |     
     |                   =====================                   |     
     |                         S. Grimme                         |     
     |          Mulliken Center for Theoretical Chemistry        |     
     |                    University of Bonn                     |     
      -----------------------------------------------------------      

   * xtb version 6.7.1 (edcfbbe) compiled by 'conda@3ef47c1a292c' on 2024-11-25

   xtb is free software: you can redistribute it and/or modify it under
   the terms of the GNU Lesser General Public License as published by
   the Free Software Foundation, either version 3 of the License, or
   (at your option) any later version.
   
   xtb is distributed in the hope that it will be useful,
   but WITHOUT ANY WARRANTY; without even the implied warranty of
   MERCHANTABILITY or FITNESS FOR A PARTICULAR PURPOSE.  See the
   GNU Lesser General Public License for more details.
   
   Cite this work as:
   * C. Bannwarth, E. Caldeweyher, S. Ehlert, A. Hansen, P. Pracht,
     J. Seibert, S. Spicher, S. Grimme, WIREs Comput. Mol. Sci., 2020, 11,
     e01493. DOI: 10.1002/wcms.1493
   
   for GFN2-xTB:
   * C. Bannwarth, S. Ehlert and S. Grimme., J. Chem. Theory Comput., 2019,
     15, 1652-1671. DOI: 10.1021/acs.jctc.8b01176
   for GFN1-xTB:
   * S. Grimme, C. Bannwarth, P. Shushkov, J. Chem. Theory Comput., 2017,
     13, 1989-2009. DOI: 10.1021/acs.jctc.7b00118
   for GFN0-xTB:
   * P. Pracht, E. Caldeweyher, S. Ehlert, S. Grimme, ChemRxiv, 2019, preprint.
     DOI: 10.26434/chemrxiv.8326202.v1
   for GFN-FF:
   * S. Spicher and S. Grimme, Angew. Chem. Int. Ed., 2020, 59, 15665-15673.
     DOI: 10.1002/anie.202004239
   
   for ALPB and GBSA implicit solvation:
   * S. Ehlert, M. Stahn, S. Spicher, S. Grimme, J. Chem. Theory Comput.,
     2021, 17, 4250-4261. DOI: 10.1021/acs.jctc.1c00471
   
   for ddCOSMO and CPCM-X implicit solvation:
   * M. Stahn, S. Ehlert, S. Grimme, J. Phys. Chem. A,
     2023, XX, XXXX-XXXX. DOI: 10.1021/acs.jpca.3c04382
   
   for DFT-D4:
   * E. Caldeweyher, C. Bannwarth and S. Grimme, J. Chem. Phys., 2017,
     147, 034112. DOI: 10.1063/1.4993215
   * E. Caldeweyher, S. Ehlert, A. Hansen, H. Neugebauer, S. Spicher,
     C. Bannwarth and S. Grimme, J. Chem. Phys., 2019, 150, 154122.
     DOI: 10.1063/1.5090222
   * E. Caldeweyher, J.-M. Mewes, S. Ehlert and S. Grimme, Phys. Chem. Chem. Phys.
     2020, 22, 8499-8512. DOI: 10.1039/D0CP00502A
   
   for sTDA-xTB:
   * S. Grimme and C. Bannwarth, J. Chem. Phys., 2016, 145, 054103.
     DOI: 10.1063/1.4959605
   
   in the mass-spec context:
   * V. Asgeirsson, C. Bauer and S. Grimme, Chem. Sci., 2017, 8, 4879.
     DOI: 10.1039/c7sc00601b
   * J. Koopman and S. Grimme, ACS Omega 2019, 4, 12, 15120-15133.
     DOI: 10.1021/acsomega.9b02011
   
   for metadynamics refer to:
   * S. Grimme, J. Chem. Theory Comput., 2019, 155, 2847-2862
     DOI: 10.1021/acs.jctc.9b00143
   
   for SPH calculations refer to:
   * S. Spicher and S. Grimme, J. Chem. Theory Comput., 2021, 17, 1701-1714
     DOI: 10.1021/acs.jctc.0c01306
   
   for ONIOM refer to:
   * C. Plett, A. Katbashev, S. Ehlert, S. Grimme, M. Bursch,
     Phys. Chem. Chem. Phys., 2023, 25, 17860-17868. DOI: 10.1039/D3CP02178E
   
   for DIPRO refer to:
   * J. Kohn, N. Gildemeister, S. Grimme, D. Fazzi, A. Hansen,
     J. Chem. Phys., 2023, just accepted.
   
   for PTB refer to:
   * S. Grimme, M. Mueller, A. Hansen, J. Chem. Phys., 2023, 158, 124111.
     DOI: 10.1063/5.0137838
   
   with help from (in alphabetical order)
   P. Atkinson, C. Bannwarth, F. Bohle, G. Brandenburg, E. Caldeweyher
   M. Checinski, S. Dohm, S. Ehlert, S. Ehrlich, I. Gerasimov, C. Hölzer
   A. Katbashev, J. Kohn, J. Koopman, C. Lavigne, S. Lehtola, F. März, M. Müller,
   F. Musil, H. Neugebauer, J. Pisarek, C. Plett, P. Pracht, F. Pultar,
   J. Seibert, P. Shushkov, S. Spicher, M. Stahn, M. Steiner, T. Strunk,
   J. Stückrath, T. Rose, and J. Unsleber
   
 * started run on 2026/08/20 at 02:46:31.314     
   ID    Z sym.   atoms
    1    6 C      1-4, 7
    2    7 N      5, 6
    3   16 S      8
    4    8 O      9
    5    1 H      10-17
constraining bond 2 6 to    2.0000000 Å, actual value:    2.0000002 Å
constraining bond 2 8 to    2.2000000 Å, actual value:    2.7093216 Å
constraining bond 6 8 to    2.1000000 Å, actual value:    2.0831656 Å

           -------------------------------------------------
          |                Calculation Setup                |
           -------------------------------------------------

          program call               : /h/399/yunhengzou/micromamba/envs/el-agente/bin/xtb pathway_B_TS_Initial_Guess.xyz --opt --gfn 2 -P 4 --chrg 0 --uhf 0 --input detailed_input.inp
          coordinate file            : pathway_B_TS_Initial_Guess.xyz
          omp threads                :                     4


           -------------------------------------------------
          |                 G F N 2 - x T B                 |
           -------------------------------------------------

        Reference                      10.1021/acs.jctc.8b01176
      * Hamiltonian:
        H0-scaling (s, p, d)           1.850000    2.230000    2.230000
        zeta-weighting                 0.500000
      * Dispersion:
        s8                             2.700000
        a1                             0.520000
        a2                             5.000000
        s9                             5.000000
      * Repulsion:
        kExp                           1.500000    1.000000
        rExp                           1.000000
      * Coulomb:
        alpha                          2.000000
        third order                    shell-resolved
        anisotropic                    true
        a3                             3.000000
        a5                             4.000000
        cn-shift                       1.200000
        cn-exp                         4.000000
        max-rad                        5.000000


          ...................................................
          :                      SETUP                      :
          :.................................................:
          :  # basis functions                  50          :
          :  # atomic orbitals                  49          :
          :  # shells                           27          :
          :  # electrons                        50          :
          :  max. iterations                   250          :
          :  Hamiltonian                  GFN2-xTB          :
          :  restarted?                      false          :
          :  GBSA solvation                  false          :
          :  PC potential                    false          :
          :  electronic temp.          300.0000000     K    :
          :  accuracy                    1.0000000          :
          :  -> integral cutoff          0.2500000E+02      :
          :  -> integral neglect         0.1000000E-07      :
          :  -> SCF convergence          0.1000000E-05 Eh   :
          :  -> wf. convergence          0.1000000E-03 e    :
          :  Broyden damping             0.4000000          :
          :  net charge                          0          :
          :  unpaired electrons                  0          :
          ...................................................

 iter      E             dE          RMSdq      gap      omega  full diag
   1    -27.5731030 -0.275731E+02  0.603E+00    1.10       0.0  T
   2    -27.4805003  0.926026E-01  0.599E+00    0.33       1.0  T
   3    -27.7069394 -0.226439E+00  0.392E+00    1.06       1.0  T
   4    -27.7930921 -0.861527E-01  0.236E+00    0.55       1.0  T
   5    -27.8078554 -0.147633E-01  0.108E+00    0.39       1.0  T
   6    -27.7990302  0.882514E-02  0.109E+00    0.20       1.0  T
   7    -27.8156101 -0.165799E-01  0.268E-01    0.24       1.0  T
   8    -27.8157000 -0.898750E-04  0.144E-01    0.23       1.0  T
   9    -27.8157713 -0.712825E-04  0.951E-02    0.23       1.0  T
  10    -27.8158771 -0.105801E-03  0.674E-02    0.23       1.0  T
  11    -27.8159035 -0.264115E-04  0.321E-02    0.23       1.0  T
  12    -27.8159020  0.149826E-05  0.382E-02    0.23       1.0  T
  13    -27.8159110 -0.900886E-05  0.776E-03    0.23       3.1  T
  14    -27.8159112 -0.216945E-06  0.639E-03    0.23       3.8  T
  15    -27.8159115 -0.299125E-06  0.934E-04    0.23      26.0  T
  16    -27.8159115 -0.216644E-09  0.514E-04    0.23      47.2  T

   *** convergence criteria satisfied after 16 iterations ***

         #    Occupation            Energy/Eh            Energy/eV
      -------------------------------------------------------------
         1        2.0000           -0.7961219             -21.6636
       ...           ...                  ...                  ...
        19        2.0000           -0.4619889             -12.5714
        20        2.0000           -0.4354504             -11.8492
        21        2.0000           -0.4235570             -11.5256
        22        2.0000           -0.4015635             -10.9271
        23        2.0000           -0.3845907             -10.4652
        24        2.0000           -0.3639426              -9.9034
        25        1.9761           -0.2963907              -8.0652 (HOMO)
        26        0.0239           -0.2880002              -7.8369 (LUMO)
        27        0.0000           -0.2794468              -7.6041
        28                         -0.2395141              -6.5175
        29                         -0.1755270              -4.7763
        30                         -0.1166702              -3.1748
       ...                                ...                  ...
        49                          2.9221102              79.5147
      -------------------------------------------------------------
                  HL-Gap            0.0083905 Eh            0.2283 eV
             Fermi-level           -0.2921955 Eh           -7.9510 eV

 SCC (total)                   0 d,  0 h,  0 min,  1.475 sec
 SCC setup                      ...        0 min,  0.020 sec (  1.365%)
 Dispersion                     ...        0 min,  0.029 sec (  1.993%)
 classical contributions        ...        0 min,  0.017 sec (  1.156%)
 integral evaluation            ...        0 min,  0.049 sec (  3.347%)
 iterations                     ...        0 min,  1.280 sec ( 86.790%)
 molecular gradient             ...        0 min,  0.079 sec (  5.335%)
 printout                       ...        0 min,  0.000 sec (  0.011%)

         :::::::::::::::::::::::::::::::::::::::::::::::::::::
         ::                     SUMMARY                     ::
         :::::::::::::::::::::::::::::::::::::::::::::::::::::
         :: total energy             -26.208025193022 Eh    ::
         :: gradient norm              3.540776763737 Eh/a0 ::
         :: HOMO-LUMO gap              0.228317745307 eV    ::
         ::.................................................::
         :: SCC energy               -27.815853427968 Eh    ::
         :: -> isotropic ES            0.050587850169 Eh    ::
         :: -> anisotropic ES          0.005624392766 Eh    ::
         :: -> anisotropic XC          0.021264967790 Eh    ::
         :: -> dispersion             -0.013982131010 Eh    ::
         :: repulsion energy           0.680451971683 Eh    ::
         :: add. restraining           0.927376263263 Eh    ::
         :: total charge              -0.000000000000 e     ::
         :::::::::::::::::::::::::::::::::::::::::::::::::::::

      ----------------------------------------------------------- 
     |                   =====================                   |
     |                        A N C O P T                        |
     |                   =====================                   |
     |               Approximate Normal Coordinate               |
     |                Rational Function Optimizer                |
      ----------------------------------------------------------- 
      ----------------------------------------------------------- 
     |                   =====================                   |
     |                        A N C O P T                        |
     |                   =====================                   |
     |               Approximate Normal Coordinate               |
     |                Rational Function Optimizer                |
      ----------------------------------------------------------- 

          ...................................................
          :                      SETUP                      :
          :.................................................:
          :   optimization level            normal          :
          :   max. optcycles                   200          :
          :   ANC micro-cycles                  20          :
          :   degrees of freedom                45          :
          :.................................................:
          :   RF solver                   davidson          :
          :   write xtbopt.log                true          :
          :   linear?                        false          :
          :   energy convergence         0.5000000E-05 Eh   :
          :   grad. convergence          0.1000000E-02 Eh/α :
          :   maxmium RF displ.          1.0000000          :
          :   Hlow (freq-cutoff)         0.1000000E-01      :
          :   Hmax (freq-cutoff)         5.0000000          :
          :   S6 in model hess.         20.0000000          :
          ...................................................

generating ANC from exact Hessian ...
Using Lindh-Hessian (1995)
 Shifting diagonal of input Hessian by    7.2492554307679834E-003
 Lowest  eigenvalues of input Hessian
    0.000000    0.000000    0.000000    0.000000    0.000000    0.000000
    0.010000    0.010335    0.014553    0.016602    0.025925    0.028604
    0.037268    0.051719    0.066790    0.077646    0.082519    0.088493
 Highest eigenvalues
    2.459770    2.861392    3.517153    4.352981    4.650521    6.578318


........................................................................
.............................. CYCLE    1 ..............................
........................................................................

 iter      E             dE          RMSdq      gap      omega  full diag
   1    -27.8159115 -0.278159E+02  0.101E-04    0.23       0.0  T
   2    -27.8159115  0.955080E-09  0.329E-04    0.23      73.7  T
   3    -27.8159115 -0.990823E-09  0.603E-05    0.23     402.3  T
     SCC iter.                  ...        0 min,  0.081 sec
     gradient                   ...        0 min,  0.017 sec
 * total energy  :   -26.2080252 Eh     change       -0.2011408E-08 Eh
   gradient norm :     3.5407704 Eh/α   predicted     0.0000000E+00 (-100.00%)
   displ. norm   :     0.5953120 α      lambda       -0.2054383E+01
   maximum displ.:     0.3647020 α      in ANC's #43, #45, #41, ...

........................................................................
.............................. CYCLE    2 ..............................
........................................................................

 iter      E             dE          RMSdq      gap      omega  full diag
   1    -27.9071999 -0.279072E+02  0.211E+00    0.63       0.0  T
   2    -27.9077218 -0.521917E-03  0.135E+00    0.93       1.0  T
   3    -27.9140679 -0.634612E-02  0.121E+00    0.71       1.0  T
   4    -27.9250320 -0.109641E-01  0.308E-01    0.78       1.0  T
   5    -27.9252612 -0.229147E-03  0.140E-01    0.78       1.0  T
   6    -27.9254057 -0.144514E-03  0.477E-02    0.77       1.0  T
   7    -27.9254227 -0.169482E-04  0.205E-02    0.78       1.2  T
   8    -27.9254215  0.112632E-05  0.143E-02    0.77       1.7  T
   9    -27.9254233 -0.179023E-05  0.835E-03    0.77       2.9  T
  10    -27.9254241 -0.783779E-06  0.282E-03    0.77       8.6  T
  11    -27.9254242 -0.536792E-07  0.111E-03    0.77      21.8  T
  12    -27.9254242 -0.292832E-08  0.731E-04    0.77      33.2  T
  13    -27.9254242 -0.252554E-08  0.212E-04    0.77     114.5  T
     SCC iter.                  ...        0 min,  0.799 sec
     gradient                   ...        0 min,  0.002 sec
 * total energy  :   -27.4240041 Eh     change       -0.1215979E+01 Eh
   gradient norm :     0.9815390 Eh/α   predicted    -0.1391225E+01 (  14.41%)
   displ. norm   :     0.4416565 α      lambda       -0.3547252E+00
   maximum displ.:     0.2207038 α      in ANC's #41, #37, #17, ...

........................................................................
.............................. CYCLE    3 ..............................
........................................................................

 iter      E             dE          RMSdq      gap      omega  full diag
   1    -27.9649377 -0.279649E+02  0.158E+00    0.96       0.0  T
   2    -27.9578895  0.704823E-02  0.134E+00    1.06       1.0  T
   3    -27.9704042 -0.125147E-01  0.642E-01    0.99       1.0  T
   4    -27.9726157 -0.221153E-02  0.121E-01    1.01       1.0  T
   5    -27.9725666  0.491418E-04  0.103E-01    1.00       1.0  T
   6    -27.9726678 -0.101221E-03  0.514E-02    1.01       1.0  T
   7    -27.9727054 -0.376322E-04  0.142E-02    1.01       1.7  T
   8    -27.9727067 -0.124438E-05  0.791E-03    1.01       3.1  T
   9    -27.9727070 -0.316971E-06  0.215E-03    1.01      11.3  T
  10    -27.9727070 -0.297423E-07  0.138E-03    1.01      17.5  T
  11    -27.9727070 -0.655210E-08  0.633E-04    1.01      38.3  T
  12    -27.9727070 -0.161862E-08  0.293E-04    1.01      82.9  T
     SCC iter.                  ...        0 min,  0.514 sec
     gradient                   ...        0 min,  0.074 sec
 * total energy  :   -27.6432804 Eh     change       -0.2192763E+00 Eh
   gradient norm :     0.3619925 Eh/α   predicted    -0.2119590E+00 (  -3.34%)
   displ. norm   :     0.4701865 α      lambda       -0.9261039E-01
   maximum displ.:     0.1651608 α      in ANC's #17, #13, #30, ...

........................................................................
.............................. CYCLE    4 ..............................
........................................................................

 iter      E             dE          RMSdq      gap      omega  full diag
   1    -28.0187896 -0.280188E+02  0.835E-01    1.25       0.0  T
   2    -28.0182510  0.538661E-03  0.836E-01    1.25       1.0  T
   3    -28.0234937 -0.524273E-02  0.304E-01    1.27       1.0  T
   4    -28.0234664  0.272886E-04  0.232E-01    1.24       1.0  T
   5    -28.0236104 -0.143961E-03  0.152E-01    1.27       1.0  T
   6    -28.0238965 -0.286147E-03  0.302E-02    1.26       1.0  T
   7    -28.0239030 -0.648947E-05  0.134E-02    1.26       1.8  T
   8    -28.0239042 -0.118175E-05  0.336E-03    1.26       7.2  T
   9    -28.0239042 -0.272302E-07  0.150E-03    1.26      16.1  T
  10    -28.0239042 -0.487199E-08  0.749E-04    1.26      32.4  T
  11    -28.0239042 -0.550932E-08  0.192E-04    1.26     126.2  T
     SCC iter.                  ...        0 min,  0.657 sec
     gradient                   ...        0 min,  0.077 sec
 * total energy  :   -27.7119618 Eh     change       -0.6868141E-01 Eh
   gradient norm :     0.2448538 Eh/α   predicted    -0.5654210E-01 ( -17.67%)
   displ. norm   :     0.5087725 α      lambda       -0.6637084E-01
   maximum displ.:     0.2102067 α      in ANC's #12, #10, #19, ...

........................................................................
.............................. CYCLE    5 ..............................
........................................................................

 iter      E             dE          RMSdq      gap      omega  full diag
   1    -28.0625894 -0.280626E+02  0.555E-01    1.37       0.0  T
   2    -28.0630275 -0.438151E-03  0.370E-01    1.37       1.0  T
   3    -28.0625980  0.429587E-03  0.237E-01    1.38       1.0  T
   4    -28.0630041 -0.406186E-03  0.136E-01    1.35       1.0  T
   5    -28.0632249 -0.220740E-03  0.374E-02    1.37       1.0  T
   6    -28.0632382 -0.132937E-04  0.172E-02    1.36       1.4  T
   7    -28.0632400 -0.185789E-05  0.853E-03    1.36       2.8  T
   8    -28.0632408 -0.789167E-06  0.179E-03    1.37      13.6  T
   9    -28.0632408 -0.555619E-08  0.712E-04    1.37      34.1  T
  10    -28.0632408 -0.874611E-09  0.253E-04    1.37      95.9  T
     SCC iter.                  ...        0 min,  0.498 sec
     gradient                   ...        0 min,  0.063 sec
 * total energy  :   -27.7547467 Eh     change       -0.4278489E-01 Eh
   gradient norm :     0.1764957 Eh/α   predicted    -0.4177547E-01 (  -2.36%)
   displ. norm   :     0.5203562 α      lambda       -0.3063069E-01
   maximum displ.:     0.2662357 α      in ANC's #3, #19, #17, ...

........................................................................
.............................. CYCLE    6 ..............................
........................................................................

 iter      E             dE          RMSdq      gap      omega  full diag
   1    -28.0744316 -0.280744E+02  0.566E-01    1.43       0.0  T
   2    -28.0740347  0.396844E-03  0.531E-01    1.41       1.0  T
   3    -28.0759893 -0.195453E-02  0.250E-01    1.43       1.0  T
   4    -28.0760517 -0.624815E-04  0.139E-01    1.41       1.0  T
   5    -28.0761808 -0.129058E-03  0.711E-02    1.43       1.0  T
   6    -28.0762310 -0.501839E-04  0.125E-02    1.42       1.9  T
   7    -28.0762317 -0.705461E-06  0.507E-03    1.42       4.8  T
   8    -28.0762318 -0.121254E-06  0.172E-03    1.42      14.1  T
   9    -28.0762318 -0.428021E-08  0.670E-04    1.42      36.2  T
  10    -28.0762318 -0.332243E-09  0.200E-04    1.42     121.5  T
     SCC iter.                  ...        0 min,  0.480 sec
     gradient                   ...        0 min,  0.058 sec
 * total energy  :   -27.7712928 Eh     change       -0.1654607E-01 Eh
   gradient norm :     0.1246240 Eh/α   predicted    -0.1946228E-01 (  17.62%)
   displ. norm   :     0.4816687 α      lambda       -0.1268485E-01
   maximum displ.:     0.2660394 α      in ANC's #2, #3, #5, ...

........................................................................
.............................. CYCLE    7 ..............................
........................................................................

 iter      E             dE          RMSdq      gap      omega  full diag
   1    -28.0778373 -0.280778E+02  0.466E-01    1.47       0.0  T
   2    -28.0777649  0.724125E-04  0.327E-01    1.43       1.0  T
   3    -28.0782656 -0.500673E-03  0.181E-01    1.46       1.0  T
   4    -28.0783800 -0.114434E-03  0.412E-02    1.45       1.0  T
   5    -28.0783798  0.278638E-06  0.224E-02    1.45       1.1  T
   6    -28.0783842 -0.440750E-05  0.123E-02    1.45       2.0  T
   7    -28.0783861 -0.188162E-05  0.256E-03    1.45       9.5  T
   8    -28.0783861 -0.406251E-07  0.154E-03    1.45      15.8  T
   9    -28.0783861 -0.301306E-08  0.589E-04    1.45      41.2  T
  10    -28.0783861 -0.216492E-09  0.299E-04    1.45      81.0  T
     SCC iter.                  ...        0 min,  0.376 sec
     gradient                   ...        0 min,  0.080 sec
 * total energy  :   -27.7800125 Eh     change       -0.8719717E-02 Eh
   gradient norm :     0.0578750 Eh/α   predicted    -0.7813903E-02 ( -10.39%)
   displ. norm   :     0.5505979 α      lambda       -0.7273737E-02
   maximum displ.:     0.3312854 α      in ANC's #2, #3, #5, ...

........................................................................
.............................. CYCLE    8 ..............................
........................................................................

 iter      E             dE          RMSdq      gap      omega  full diag
   1    -28.0807987 -0.280808E+02  0.363E-01    1.53       0.0  T
   2    -28.0807371  0.615928E-04  0.245E-01    1.48       1.0  T
   3    -28.0809992 -0.262112E-03  0.148E-01    1.51       1.0  T
   4    -28.0810558 -0.566042E-04  0.599E-02    1.50       1.0  T
   5    -28.0811082 -0.523989E-04  0.239E-02    1.50       1.0  T
   6    -28.0811110 -0.275227E-05  0.767E-03    1.50       3.2  T
   7    -28.0811115 -0.507418E-06  0.258E-03    1.50       9.4  T
   8    -28.0811115 -0.494206E-07  0.141E-03    1.50      17.2  T
   9    -28.0811115 -0.169803E-08  0.474E-04    1.50      51.1  T
  10    -28.0811115 -0.544564E-09  0.232E-04    1.50     104.4  T
     SCC iter.                  ...        0 min,  0.438 sec
     gradient                   ...        0 min,  0.076 sec
 * total energy  :   -27.7858436 Eh     change       -0.5831097E-02 Eh
   gradient norm :     0.0599468 Eh/α   predicted    -0.4739413E-02 ( -18.72%)
   displ. norm   :     0.5862410 α      lambda       -0.7542239E-02
   maximum displ.:     0.3843464 α      in ANC's #2, #3, #5, ...

........................................................................
.............................. CYCLE    9 ..............................
........................................................................

 iter      E             dE          RMSdq      gap      omega  full diag
   1    -28.0880445 -0.280880E+02  0.279E-01    1.58       0.0  T
   2    -28.0880045  0.399757E-04  0.162E-01    1.56       1.0  T
   3    -28.0878624  0.142090E-03  0.153E-01    1.58       1.0  T
   4    -28.0881311 -0.268715E-03  0.325E-02    1.57       1.0  T
   5    -28.0881423 -0.111652E-04  0.171E-02    1.57       1.4  T
   6    -28.0881439 -0.159882E-05  0.586E-03    1.57       4.1  T
   7    -28.0881441 -0.221925E-06  0.239E-03    1.57      10.2  T
   8    -28.0881441 -0.199411E-07  0.129E-03    1.57      18.8  T
   9    -28.0881441 -0.353030E-08  0.435E-04    1.57      55.7  T
  10    -28.0881441 -0.319790E-09  0.214E-04    1.57     113.4  T
     SCC iter.                  ...        0 min,  0.367 sec
     gradient                   ...        0 min,  0.063 sec
 * total energy  :   -27.7921568 Eh     change       -0.6313253E-02 Eh
   gradient norm :     0.0522498 Eh/α   predicted    -0.5067156E-02 ( -19.74%)
   displ. norm   :     0.6592219 α      lambda       -0.9344853E-02
   maximum displ.:     0.3085088 α      in ANC's #2, #3, #1, ...

........................................................................
.............................. CYCLE   10 ..............................
........................................................................

 iter      E             dE          RMSdq      gap      omega  full diag
   1    -28.0941759 -0.280942E+02  0.377E-01    1.70       0.0  T
   2    -28.0940295  0.146442E-03  0.360E-01    1.60       1.0  T
   3    -28.0950285 -0.999030E-03  0.116E-01    1.65       1.0  T
   4    -28.0949117  0.116790E-03  0.975E-02    1.64       1.0  T
   5    -28.0950643 -0.152569E-03  0.213E-02    1.65       1.1  T
   6    -28.0950661 -0.181009E-05  0.103E-02    1.65       2.4  T
   7    -28.0950667 -0.546008E-06  0.508E-03    1.65       4.8  T
   8    -28.0950668 -0.113204E-06  0.215E-03    1.65      11.3  T
   9    -28.0950668 -0.802882E-08  0.583E-04    1.65      41.6  T
  10    -28.0950668 -0.169369E-08  0.262E-04    1.65      92.6  T
     SCC iter.                  ...        0 min,  0.311 sec
     gradient                   ...        0 min,  0.065 sec
 * total energy  :   -27.7991432 Eh     change       -0.6986354E-02 Eh
   gradient norm :     0.0633789 Eh/α   predicted    -0.6702982E-02 (  -4.06%)
   displ. norm   :     0.6088560 α      lambda       -0.8364948E-02
   maximum displ.:     0.4115238 α      in ANC's #2, #8, #3, ...

........................................................................
.............................. CYCLE   11 ..............................
........................................................................

 iter      E             dE          RMSdq      gap      omega  full diag
   1    -28.1068588 -0.281069E+02  0.410E-01    1.68       0.0  T
   2    -28.1069352 -0.763691E-04  0.411E-01    1.76       1.0  T
   3    -28.1078570 -0.921796E-03  0.149E-01    1.72       1.0  T
   4    -28.1078554  0.161282E-05  0.328E-02    1.72       1.0  T
   5    -28.1078549  0.508761E-06  0.211E-02    1.72       1.1  T
   6    -28.1078595 -0.461815E-05  0.121E-02    1.72       2.0  T
   7    -28.1078612 -0.174400E-05  0.437E-03    1.72       5.6  T
   8    -28.1078614 -0.197695E-06  0.142E-03    1.72      17.1  T
   9    -28.1078614 -0.375210E-08  0.687E-04    1.72      35.3  T
  10    -28.1078614 -0.212711E-08  0.216E-04    1.72     112.1  T
     SCC iter.                  ...        0 min,  0.473 sec
     gradient                   ...        0 min,  0.050 sec
 * total energy  :   -27.8034006 Eh     change       -0.4257402E-02 Eh
   gradient norm :     0.0984453 Eh/α   predicted    -0.5732941E-02 (  34.66%)
   displ. norm   :     0.5411444 α      lambda       -0.5855309E-02
   maximum displ.:     0.3472683 α      in ANC's #2, #1, #3, ...

........................................................................
.............................. CYCLE   12 ..............................
........................................................................

 iter      E             dE          RMSdq      gap      omega  full diag
   1    -28.0996289 -0.280996E+02  0.338E-01    1.82       0.0  T
   2    -28.0996997 -0.708234E-04  0.294E-01    1.76       1.0  T
   3    -28.1002425 -0.542779E-03  0.947E-02    1.79       1.0  T
   4    -28.1002250  0.175218E-04  0.482E-02    1.78       1.0  T
   5    -28.1002459 -0.209266E-04  0.255E-02    1.79       1.0  T
   6    -28.1002524 -0.652174E-05  0.685E-03    1.79       3.5  T
   7    -28.1002526 -0.167521E-06  0.257E-03    1.79       9.4  T
   8    -28.1002526 -0.604777E-07  0.107E-03    1.79      22.7  T
   9    -28.1002526  0.315012E-09  0.518E-04    1.79      46.9  T
  10    -28.1002526 -0.170217E-08  0.205E-04    1.79     118.4  T
     SCC iter.                  ...        0 min,  0.416 sec
     gradient                   ...        0 min,  0.068 sec
 * total energy  :   -27.8074499 Eh     change       -0.4049308E-02 Eh
   gradient norm :     0.0680252 Eh/α   predicted    -0.3784991E-02 (  -6.53%)
   displ. norm   :     0.3859306 α      lambda       -0.4869254E-02
   maximum displ.:     0.1817829 α      in ANC's #6, #2, #1, ...

........................................................................
.............................. CYCLE   13 ..............................
........................................................................

 iter      E             dE          RMSdq      gap      omega  full diag
   1    -28.1087031 -0.281087E+02  0.261E-01    1.87       0.0  T
   2    -28.1087572 -0.541490E-04  0.237E-01    1.81       1.0  T
   3    -28.1090759 -0.318658E-03  0.839E-02    1.84       1.0  T
   4    -28.1090591  0.168335E-04  0.409E-02    1.83       1.0  T
   5    -28.1090779 -0.187916E-04  0.173E-02    1.84       1.4  T
   6    -28.1090803 -0.241673E-05  0.530E-03    1.84       4.6  T
   7    -28.1090804 -0.156428E-06  0.196E-03    1.84      12.4  T
   8    -28.1090805 -0.356421E-07  0.674E-04    1.84      36.0  T
   9    -28.1090805 -0.192212E-09  0.403E-04    1.84      60.2  T
     SCC iter.                  ...        0 min,  0.326 sec
     gradient                   ...        0 min,  0.076 sec
 * total energy  :   -27.8100180 Eh     change       -0.2568134E-02 Eh
   gradient norm :     0.0640833 Eh/α   predicted    -0.2797243E-02 (   8.92%)
   displ. norm   :     0.5139504 α      lambda       -0.3750785E-02
   maximum displ.:     0.3409212 α      in ANC's #2, #1, #8, ...

........................................................................
.............................. CYCLE   14 ..............................
........................................................................

 iter      E             dE          RMSdq      gap      omega  full diag
   1    -28.1059653 -0.281060E+02  0.248E-01    1.87       0.0  T
   2    -28.1060252 -0.598261E-04  0.182E-01    1.89       1.0  T
   3    -28.1061324 -0.107290E-03  0.888E-02    1.87       1.0  T
   4    -28.1061484 -0.159141E-04  0.273E-02    1.88       1.0  T
   5    -28.1061480  0.395264E-06  0.150E-02    1.88       1.6  T
   6    -28.1061502 -0.227959E-05  0.828E-03    1.88       2.9  T
   7    -28.1061509 -0.606254E-06  0.330E-03    1.88       7.4  T
   8    -28.1061510 -0.966763E-07  0.134E-03    1.88      18.1  T
   9    -28.1061510 -0.518283E-08  0.509E-04    1.88      47.6  T
  10    -28.1061510 -0.272166E-09  0.155E-04    1.88     156.6  T
     SCC iter.                  ...        0 min,  0.469 sec
     gradient                   ...        0 min,  0.073 sec
 * total energy  :   -27.8121983 Eh     change       -0.2180283E-02 Eh
   gradient norm :     0.0511247 Eh/α   predicted    -0.2370753E-02 (   8.74%)
   displ. norm   :     0.2843902 α      lambda       -0.1988543E-02
   maximum displ.:     0.1845188 α      in ANC's #2, #6, #8, ...

........................................................................
.............................. CYCLE   15 ..............................
........................................................................

 iter      E             dE          RMSdq      gap      omega  full diag
   1    -28.1102984 -0.281103E+02  0.156E-01    1.91       0.0  T
   2    -28.1102993 -0.846973E-06  0.779E-02    1.90       1.0  T
   3    -28.1102615  0.377689E-04  0.673E-02    1.91       1.0  T
   4    -28.1103112 -0.496525E-04  0.182E-02    1.90       1.3  T
   5    -28.1103134 -0.224106E-05  0.109E-02    1.90       2.2  T
   6    -28.1103143 -0.873396E-06  0.186E-03    1.90      13.1  T
   7    -28.1103143 -0.214481E-07  0.788E-04    1.90      30.8  T
   8    -28.1103143 -0.216252E-08  0.383E-04    1.90      63.2  T
     SCC iter.                  ...        0 min,  0.274 sec
     gradient                   ...        0 min,  0.009 sec
 * total energy  :   -27.8135506 Eh     change       -0.1352316E-02 Eh
   gradient norm :     0.0435840 Eh/α   predicted    -0.1074684E-02 ( -20.53%)
   displ. norm   :     0.2925872 α      lambda       -0.1762257E-02
   maximum displ.:     0.1938349 α      in ANC's #2, #4, #6, ...

........................................................................
.............................. CYCLE   16 ..............................
........................................................................

 iter      E             dE          RMSdq      gap      omega  full diag
   1    -28.1166577 -0.281167E+02  0.151E-01    1.94       0.0  T
   2    -28.1166663 -0.860200E-05  0.788E-02    1.94       1.0  T
   3    -28.1166579  0.834829E-05  0.374E-02    1.94       1.0  T
   4    -28.1166697 -0.117396E-04  0.122E-02    1.94       2.0  T
   5    -28.1166690  0.638991E-06  0.864E-03    1.94       2.8  T
   6    -28.1166701 -0.106493E-05  0.302E-03    1.94       8.0  T
   7    -28.1166702 -0.105694E-06  0.107E-03    1.94      22.7  T
   8    -28.1166702 -0.599810E-08  0.665E-04    1.94      36.4  T
   9    -28.1166702 -0.665310E-09  0.224E-04    1.94     108.4  T
     SCC iter.                  ...        0 min,  0.342 sec
     gradient                   ...        0 min,  0.079 sec
 * total energy  :   -27.8147937 Eh     change       -0.1243036E-02 Eh
   gradient norm :     0.0281871 Eh/α   predicted    -0.9565627E-03 ( -23.05%)
   displ. norm   :     0.4689472 α      lambda       -0.1898815E-02
   maximum displ.:     0.2388392 α      in ANC's #2, #6, #4, ...

........................................................................
.............................. CYCLE   17 ..............................
........................................................................

 iter      E             dE          RMSdq      gap      omega  full diag
   1    -28.1151899 -0.281152E+02  0.365E-01    2.01       0.0  T
   2    -28.1152917 -0.101821E-03  0.271E-01    1.93       1.0  T
   3    -28.1158049 -0.513193E-03  0.939E-02    1.97       1.0  T
   4    -28.1157752  0.296615E-04  0.676E-02    1.96       1.0  T
   5    -28.1158447 -0.694382E-04  0.203E-02    1.96       1.2  T
   6    -28.1158454 -0.765851E-06  0.760E-03    1.97       3.2  T
   7    -28.1158460 -0.506901E-06  0.238E-03    1.97      10.2  T
   8    -28.1158460 -0.358628E-07  0.110E-03    1.97      22.0  T
   9    -28.1158460 -0.282438E-08  0.528E-04    1.97      45.9  T
  10    -28.1158460 -0.852108E-09  0.193E-04    1.97     125.8  T
     SCC iter.                  ...        0 min,  0.318 sec
     gradient                   ...        0 min,  0.052 sec
 * total energy  :   -27.8158860 Eh     change       -0.1092385E-02 Eh
   gradient norm :     0.0493623 Eh/α   predicted    -0.1158192E-02 (   6.02%)
   displ. norm   :     0.3131960 α      lambda       -0.2657352E-02
   maximum displ.:     0.1472046 α      in ANC's #2, #1, #6, ...

........................................................................
.............................. CYCLE   18 ..............................
........................................................................

 iter      E             dE          RMSdq      gap      omega  full diag
   1    -28.1224386 -0.281224E+02  0.213E-01    1.99       0.0  T
   2    -28.1225050 -0.664430E-04  0.170E-01    2.03       1.0  T
   3    -28.1226291 -0.124056E-03  0.767E-02    2.01       1.0  T
   4    -28.1226291 -0.374283E-07  0.195E-02    2.01       1.2  T
   5    -28.1226302 -0.104491E-05  0.145E-02    2.01       1.7  T
   6    -28.1226330 -0.280386E-05  0.505E-03    2.01       4.8  T
   7    -28.1226332 -0.218096E-06  0.144E-03    2.01      16.8  T
   8    -28.1226332 -0.194105E-07  0.515E-04    2.01      47.1  T
   9    -28.1226332 -0.256456E-09  0.269E-04    2.01      90.0  T
     SCC iter.                  ...        0 min,  0.327 sec
     gradient                   ...        0 min,  0.071 sec
 * total energy  :   -27.8173384 Eh     change       -0.1452374E-02 Eh
   gradient norm :     0.0308930 Eh/α   predicted    -0.1459002E-02 (   0.46%)
   displ. norm   :     0.3535330 α      lambda       -0.2086461E-02
   maximum displ.:     0.1816330 α      in ANC's #2, #4, #7, ...

........................................................................
.............................. CYCLE   19 ..............................
........................................................................

 iter      E             dE          RMSdq      gap      omega  full diag
   1    -28.1217776 -0.281218E+02  0.172E-01    2.03       0.0  T
   2    -28.1217814 -0.375983E-05  0.947E-02    2.03       1.0  T
   3    -28.1217280  0.533338E-04  0.734E-02    2.03       1.0  T
   4    -28.1217935 -0.654325E-04  0.255E-02    2.03       1.0  T
   5    -28.1217992 -0.577437E-05  0.125E-02    2.03       1.9  T
   6    -28.1218000 -0.808083E-06  0.284E-03    2.03       8.6  T
   7    -28.1218001 -0.276978E-07  0.151E-03    2.03      16.1  T
   8    -28.1218001 -0.422650E-08  0.748E-04    2.03      32.4  T
   9    -28.1218001 -0.202885E-08  0.251E-04    2.03      96.6  T
     SCC iter.                  ...        0 min,  0.283 sec
     gradient                   ...        0 min,  0.002 sec
 * total energy  :   -27.8185449 Eh     change       -0.1206451E-02 Eh
   gradient norm :     0.0315036 Eh/α   predicted    -0.1173614E-02 (  -2.72%)
   displ. norm   :     0.2676344 α      lambda       -0.1807195E-02
   maximum displ.:     0.1334289 α      in ANC's #3, #6, #5, ...

........................................................................
.............................. CYCLE   20 ..............................
........................................................................

 iter      E             dE          RMSdq      gap      omega  full diag
   1    -28.1215499 -0.281215E+02  0.252E-01    2.04       0.0  T
   2    -28.1216008 -0.509493E-04  0.147E-01    2.00       1.0  T
   3    -28.1217040 -0.103148E-03  0.830E-02    2.02       1.0  T
   4    -28.1217174 -0.134563E-04  0.376E-02    2.02       1.0  T
   5    -28.1217357 -0.183122E-04  0.150E-02    2.02       1.6  T
   6    -28.1217368 -0.102197E-05  0.453E-03    2.02       5.4  T
   7    -28.1217370 -0.230111E-06  0.151E-03    2.02      16.1  T
   8    -28.1217370 -0.735555E-08  0.818E-04    2.02      29.7  T
   9    -28.1217370 -0.477730E-09  0.322E-04    2.02      75.4  T
     SCC iter.                  ...        0 min,  0.289 sec
     gradient                   ...        0 min,  0.002 sec
 * total energy  :   -27.8196570 Eh     change       -0.1112087E-02 Eh
   gradient norm :     0.0354747 Eh/α   predicted    -0.9683303E-03 ( -12.93%)
   displ. norm   :     0.3159633 α      lambda       -0.1579385E-02
   maximum displ.:     0.1648529 α      in ANC's #5, #6, #2, ...
 * RMSD in coord.:     1.3715584 α      energy gain  -0.1611632E+01 Eh

generating ANC from exact Hessian ...
Using Lindh-Hessian (1995)
 Shifting diagonal of input Hessian by    1.6307096352252342E-002
 Lowest  eigenvalues of input Hessian
    0.010000    0.000000    0.000000    0.000000    0.000000    0.000000
    0.000000    0.018836    0.020699    0.024839    0.025675    0.028164
    0.030742    0.036839    0.042809    0.054620    0.057677    0.072392
 Highest eigenvalues
    1.975593    2.018712    2.247212    3.167825    3.577666    6.554748


........................................................................
.............................. CYCLE   21 ..............................
........................................................................

 iter      E             dE          RMSdq      gap      omega  full diag
   1    -28.1106548 -0.281107E+02  0.178E-01    2.03       0.0  T
   2    -28.1106870 -0.322154E-04  0.107E-01    2.04       1.0  T
   3    -28.1106721  0.149249E-04  0.607E-02    2.03       1.0  T
   4    -28.1106917 -0.196062E-04  0.251E-02    2.03       1.0  T
   5    -28.1106965 -0.473502E-05  0.135E-02    2.03       1.8  T
   6    -28.1106990 -0.256413E-05  0.435E-03    2.03       5.6  T
   7    -28.1106991 -0.798182E-07  0.132E-03    2.03      18.4  T
   8    -28.1106991 -0.104316E-07  0.737E-04    2.03      32.9  T
   9    -28.1106991 -0.281320E-08  0.333E-04    2.03      72.8  T
     SCC iter.                  ...        0 min,  0.186 sec
     gradient                   ...        0 min,  0.002 sec
 * total energy  :   -27.8201581 Eh     change       -0.5011156E-03 Eh
   gradient norm :     0.0278279 Eh/α   predicted     0.0000000E+00 (-100.00%)
   displ. norm   :     0.1964331 α      lambda       -0.2380900E-02
   maximum displ.:     0.1232947 α      in ANC's #2, #9, #8, ...

........................................................................
.............................. CYCLE   22 ..............................
........................................................................

 iter      E             dE          RMSdq      gap      omega  full diag
   1    -28.1205172 -0.281205E+02  0.135E-01    2.06       0.0  T
   2    -28.1205278 -0.106253E-04  0.811E-02    2.06       1.0  T
   3    -28.1205062  0.216036E-04  0.551E-02    2.06       1.0  T
   4    -28.1205324 -0.261212E-04  0.174E-02    2.06       1.4  T
   5    -28.1205370 -0.464884E-05  0.620E-03    2.06       3.9  T
   6    -28.1205375 -0.466917E-06  0.211E-03    2.06      11.5  T
   7    -28.1205375 -0.454902E-08  0.678E-04    2.06      35.8  T
   8    -28.1205375 -0.145007E-08  0.355E-04    2.06      68.4  T
     SCC iter.                  ...        0 min,  0.125 sec
     gradient                   ...        0 min,  0.002 sec
 * total energy  :   -27.8217595 Eh     change       -0.1601393E-02 Eh
   gradient norm :     0.0089271 Eh/α   predicted    -0.1236385E-02 ( -22.79%)
   displ. norm   :     0.2405583 α      lambda       -0.1116485E-02
   maximum displ.:     0.1514940 α      in ANC's #2, #9, #1, ...

........................................................................
.............................. CYCLE   23 ..............................
........................................................................

 iter      E             dE          RMSdq      gap      omega  full diag
   1    -28.1260688 -0.281261E+02  0.176E-01    2.08       0.0  T
   2    -28.1261021 -0.332515E-04  0.946E-02    2.06       1.0  T
   3    -28.1261206 -0.185438E-04  0.575E-02    2.08       1.0  T
   4    -28.1261347 -0.140678E-04  0.196E-02    2.07       1.2  T
   5    -28.1261365 -0.180299E-05  0.146E-02    2.07       1.7  T
   6    -28.1261384 -0.193781E-05  0.400E-03    2.07       6.1  T
   7    -28.1261386 -0.137024E-06  0.173E-03    2.07      14.0  T
   8    -28.1261386 -0.248485E-07  0.882E-04    2.07      27.5  T
   9    -28.1261386 -0.347807E-09  0.360E-04    2.07      67.3  T
     SCC iter.                  ...        0 min,  0.282 sec
     gradient                   ...        0 min,  0.075 sec
 * total energy  :   -27.8224444 Eh     change       -0.6849801E-03 Eh
   gradient norm :     0.0079583 Eh/α   predicted    -0.5905517E-03 ( -13.79%)
   displ. norm   :     0.2284039 α      lambda       -0.5707158E-03
   maximum displ.:     0.1807130 α      in ANC's #2, #9, #5, ...

........................................................................
.............................. CYCLE   24 ..............................
........................................................................

 iter      E             dE          RMSdq      gap      omega  full diag
   1    -28.1265826 -0.281266E+02  0.120E-01    2.09       0.0  T
   2    -28.1266068 -0.242346E-04  0.673E-02    2.07       1.0  T
   3    -28.1266279 -0.211200E-04  0.398E-02    2.08       1.0  T
   4    -28.1266292 -0.127996E-05  0.150E-02    2.08       1.6  T
   5    -28.1266319 -0.269391E-05  0.828E-03    2.08       2.9  T
   6    -28.1266327 -0.740933E-06  0.254E-03    2.08       9.6  T
   7    -28.1266327 -0.341154E-07  0.112E-03    2.08      21.6  T
   8    -28.1266327 -0.845043E-08  0.569E-04    2.08      42.6  T
   9    -28.1266327 -0.562210E-09  0.238E-04    2.08     102.0  T
     SCC iter.                  ...        0 min,  0.281 sec
     gradient                   ...        0 min,  0.002 sec
 * total energy  :   -27.8227992 Eh     change       -0.3547410E-03 Eh
   gradient norm :     0.0103847 Eh/α   predicted    -0.3002475E-03 ( -15.36%)
   displ. norm   :     0.1746872 α      lambda       -0.3114499E-03
   maximum displ.:     0.1351010 α      in ANC's #2, #1, #5, ...

........................................................................
.............................. CYCLE   25 ..............................
........................................................................

 iter      E             dE          RMSdq      gap      omega  full diag
   1    -28.1254915 -0.281255E+02  0.118E-01    2.10       0.0  T
   2    -28.1255101 -0.185994E-04  0.656E-02    2.08       1.0  T
   3    -28.1255306 -0.204656E-04  0.368E-02    2.09       1.0  T
   4    -28.1255335 -0.291385E-05  0.115E-02    2.09       2.1  T
   5    -28.1255341 -0.652530E-06  0.781E-03    2.09       3.1  T
   6    -28.1255346 -0.482505E-06  0.247E-03    2.09       9.8  T
   7    -28.1255347 -0.931976E-07  0.945E-04    2.09      25.7  T
   8    -28.1255347 -0.434774E-08  0.519E-04    2.09      46.7  T
     SCC iter.                  ...        0 min,  0.243 sec
     gradient                   ...        0 min,  0.073 sec
 * total energy  :   -27.8230052 Eh     change       -0.2060404E-03 Eh
   gradient norm :     0.0075237 Eh/α   predicted    -0.1604744E-03 ( -22.12%)
   displ. norm   :     0.0974150 α      lambda       -0.1454835E-03
   maximum displ.:     0.0723327 α      in ANC's #2, #6, #7, ...

........................................................................
.............................. CYCLE   26 ..............................
........................................................................

 iter      E             dE          RMSdq      gap      omega  full diag
   1    -28.1247517 -0.281248E+02  0.580E-02    2.10       0.0  T
   2    -28.1247541 -0.238988E-05  0.285E-02    2.10       1.0  T
   3    -28.1247536  0.494237E-06  0.202E-02    2.10       1.2  T
   4    -28.1247551 -0.152445E-05  0.484E-03    2.10       5.0  T
   5    -28.1247551 -0.186157E-07  0.335E-03    2.10       7.2  T
   6    -28.1247553 -0.114996E-06  0.132E-03    2.10      18.4  T
   7    -28.1247553 -0.105632E-07  0.666E-04    2.10      36.4  T
   8    -28.1247553 -0.342735E-08  0.303E-04    2.10      80.1  T
     SCC iter.                  ...        0 min,  0.311 sec
     gradient                   ...        0 min,  0.060 sec
 * total energy  :   -27.8230999 Eh     change       -0.9471846E-04 Eh
   gradient norm :     0.0040781 Eh/α   predicted    -0.7343032E-04 ( -22.48%)
   displ. norm   :     0.0637856 α      lambda       -0.5327870E-04
   maximum displ.:     0.0401914 α      in ANC's #2, #6, #7, ...

........................................................................
.............................. CYCLE   27 ..............................
........................................................................

 iter      E             dE          RMSdq      gap      omega  full diag
   1    -28.1247327 -0.281247E+02  0.318E-02    2.10       0.0  T
   2    -28.1247334 -0.744726E-06  0.180E-02    2.10       1.3  T
   3    -28.1247331  0.308563E-06  0.693E-03    2.10       3.5  T
   4    -28.1247335 -0.368140E-06  0.325E-03    2.10       7.5  T
   5    -28.1247335 -0.645467E-07  0.155E-03    2.10      15.7  T
   6    -28.1247335 -0.193746E-07  0.894E-04    2.10      27.1  T
   7    -28.1247336 -0.834146E-08  0.322E-04    2.10      75.3  T
     SCC iter.                  ...        0 min,  0.303 sec
     gradient                   ...        0 min,  0.083 sec
 * total energy  :   -27.8231374 Eh     change       -0.3747643E-04 Eh
   gradient norm :     0.0026829 Eh/α   predicted    -0.2674729E-04 ( -28.63%)
   displ. norm   :     0.0617499 α      lambda       -0.3529964E-04
   maximum displ.:     0.0316765 α      in ANC's #2, #6, #7, ...

........................................................................
.............................. CYCLE   28 ..............................
........................................................................

 iter      E             dE          RMSdq      gap      omega  full diag
   1    -28.1250122 -0.281250E+02  0.287E-02    2.11       0.0  T
   2    -28.1250126 -0.445570E-06  0.156E-02    2.11       1.6  T
   3    -28.1250115  0.112541E-05  0.124E-02    2.11       2.0  T
   4    -28.1250130 -0.156417E-05  0.378E-03    2.11       6.4  T
   5    -28.1250132 -0.156662E-06  0.170E-03    2.11      14.3  T
   6    -28.1250132 -0.270281E-07  0.684E-04    2.11      35.5  T
   7    -28.1250132 -0.307582E-08  0.281E-04    2.11      86.3  T
     SCC iter.                  ...        0 min,  0.092 sec
     gradient                   ...        0 min,  0.002 sec
 * total energy  :   -27.8231611 Eh     change       -0.2371296E-04 Eh
   gradient norm :     0.0024507 Eh/α   predicted    -0.1771592E-04 ( -25.29%)
   displ. norm   :     0.0493642 α      lambda       -0.1909647E-04
   maximum displ.:     0.0226832 α      in ANC's #4, #7, #2, ...

........................................................................
.............................. CYCLE   29 ..............................
........................................................................

 iter      E             dE          RMSdq      gap      omega  full diag
   1    -28.1252659 -0.281253E+02  0.183E-02    2.11       0.0  T
   2    -28.1252661 -0.201200E-06  0.121E-02    2.11       2.0  T
   3    -28.1252660  0.147359E-06  0.790E-03    2.11       3.1  T
   4    -28.1252664 -0.388389E-06  0.267E-03    2.11       9.1  T
   5    -28.1252665 -0.104666E-06  0.926E-04    2.11      26.2  T
   6    -28.1252665 -0.996655E-08  0.385E-04    2.11      62.9  T
     SCC iter.                  ...        0 min,  0.341 sec
     gradient                   ...        0 min,  0.002 sec
 * total energy  :   -27.8231738 Eh     change       -0.1269323E-04 Eh
   gradient norm :     0.0022844 Eh/α   predicted    -0.9570748E-05 ( -24.60%)
   displ. norm   :     0.0471423 α      lambda       -0.1434654E-04
   maximum displ.:     0.0266398 α      in ANC's #4, #3, #7, ...

........................................................................
.............................. CYCLE   30 ..............................
........................................................................

 iter      E             dE          RMSdq      gap      omega  full diag
   1    -28.1254162 -0.281254E+02  0.173E-02    2.12       0.0  T
   2    -28.1254163 -0.141052E-06  0.101E-02    2.12       2.4  T
   3    -28.1254163  0.180047E-07  0.778E-03    2.12       3.1  T
   4    -28.1254167 -0.352724E-06  0.307E-03    2.12       7.9  T
   5    -28.1254168 -0.155348E-06  0.934E-04    2.12      26.0  T
   6    -28.1254168 -0.536684E-08  0.259E-04    2.12      93.7  T
     SCC iter.                  ...        0 min,  0.405 sec
     gradient                   ...        0 min,  0.067 sec
 * total energy  :   -27.8231832 Eh     change       -0.9383330E-05 Eh
   gradient norm :     0.0016295 Eh/α   predicted    -0.7189631E-05 ( -23.38%)
   displ. norm   :     0.0749741 α      lambda       -0.1229193E-04
   maximum displ.:     0.0484641 α      in ANC's #4, #3, #7, ...

........................................................................
.............................. CYCLE   31 ..............................
........................................................................

 iter      E             dE          RMSdq      gap      omega  full diag
   1    -28.1252616 -0.281253E+02  0.206E-02    2.12       0.0  T
   2    -28.1252616 -0.916056E-07  0.123E-02    2.12       2.0  T
   3    -28.1252609  0.743574E-06  0.929E-03    2.12       2.6  T
   4    -28.1252617 -0.829032E-06  0.278E-03    2.12       8.7  T
   5    -28.1252619 -0.132623E-06  0.725E-04    2.12      33.5  T
   6    -28.1252619 -0.253350E-08  0.294E-04    2.12      82.6  T
     SCC iter.                  ...        0 min,  0.223 sec
     gradient                   ...        0 min,  0.002 sec
 * total energy  :   -27.8231946 Eh     change       -0.1141109E-04 Eh
   gradient norm :     0.0026225 Eh/α   predicted    -0.6161824E-05 ( -46.00%)
   displ. norm   :     0.0454760 α      lambda       -0.1189686E-04
   maximum displ.:     0.0293117 α      in ANC's #4, #3, #7, ...

........................................................................
.............................. CYCLE   32 ..............................
........................................................................

 iter      E             dE          RMSdq      gap      omega  full diag
   1    -28.1251207 -0.281251E+02  0.122E-02    2.12       0.0  T
   2    -28.1251207 -0.580049E-07  0.809E-03    2.12       3.0  T
   3    -28.1251206  0.127791E-06  0.479E-03    2.12       5.1  T
   4    -28.1251208 -0.190369E-06  0.100E-03    2.12      24.2  T
   5    -28.1251208 -0.715449E-08  0.604E-04    2.12      40.1  T
   6    -28.1251208 -0.494775E-08  0.208E-04    2.12     116.5  T
     SCC iter.                  ...        0 min,  0.143 sec
     gradient                   ...        0 min,  0.069 sec
 * total energy  :   -27.8232048 Eh     change       -0.1013417E-04 Eh
   gradient norm :     0.0021803 Eh/α   predicted    -0.5959962E-05 ( -41.19%)
   displ. norm   :     0.1504259 α      lambda       -0.3324800E-04
   maximum displ.:     0.0964714 α      in ANC's #4, #1, #7, ...

........................................................................
.............................. CYCLE   33 ..............................
........................................................................

 iter      E             dE          RMSdq      gap      omega  full diag
   1    -28.1243770 -0.281244E+02  0.379E-02    2.12       0.0  T
   2    -28.1243775 -0.480446E-06  0.240E-02    2.12       1.0  T
   3    -28.1243762  0.132449E-05  0.142E-02    2.12       1.7  T
   4    -28.1243781 -0.185739E-05  0.196E-03    2.12      12.4  T
   5    -28.1243780  0.158088E-07  0.156E-03    2.12      15.5  T
   6    -28.1243781 -0.323604E-07  0.523E-04    2.12      46.4  T
   7    -28.1243781 -0.206468E-08  0.189E-04    2.12     128.3  T
     SCC iter.                  ...        0 min,  0.529 sec
     gradient                   ...        0 min,  0.163 sec
 * total energy  :   -27.8232241 Eh     change       -0.1931473E-04 Eh
   gradient norm :     0.0029793 Eh/α   predicted    -0.1700163E-04 ( -11.98%)
   displ. norm   :     0.0439524 α      lambda       -0.1447113E-04
   maximum displ.:     0.0222446 α      in ANC's #4, #2, #1, ...

........................................................................
.............................. CYCLE   34 ..............................
........................................................................

 iter      E             dE          RMSdq      gap      omega  full diag
   1    -28.1246714 -0.281247E+02  0.145E-02    2.12       0.0  T
   2    -28.1246716 -0.155120E-06  0.861E-03    2.12       2.8  T
   3    -28.1246715  0.988011E-07  0.637E-03    2.12       3.8  T
   4    -28.1246717 -0.252507E-06  0.239E-03    2.12      10.2  T
   5    -28.1246718 -0.890160E-07  0.824E-04    2.12      29.4  T
   6    -28.1246718 -0.699216E-08  0.210E-04    2.12     115.7  T
     SCC iter.                  ...        0 min,  0.227 sec
     gradient                   ...        0 min,  0.002 sec
 * total energy  :   -27.8232357 Eh     change       -0.1166880E-04 Eh
   gradient norm :     0.0025057 Eh/α   predicted    -0.7250996E-05 ( -37.86%)
   displ. norm   :     0.1567150 α      lambda       -0.3356253E-04
   maximum displ.:     0.0925574 α      in ANC's #4, #1, #7, ...

........................................................................
.............................. CYCLE   35 ..............................
........................................................................

 iter      E             dE          RMSdq      gap      omega  full diag
   1    -28.1245453 -0.281245E+02  0.400E-02    2.12       0.0  T
   2    -28.1245455 -0.181528E-06  0.245E-02    2.12       1.0  T
   3    -28.1245421  0.344085E-05  0.193E-02    2.12       1.3  T
   4    -28.1245462 -0.414521E-05  0.449E-03    2.12       5.4  T
   5    -28.1245465 -0.289752E-06  0.200E-03    2.12      12.1  T
   6    -28.1245465 -0.452369E-07  0.277E-04    2.12      87.7  T
   7    -28.1245465 -0.317300E-09  0.135E-04    2.12     179.4  T
     SCC iter.                  ...        0 min,  0.539 sec
     gradient                   ...        0 min,  0.049 sec
 * total energy  :   -27.8232582 Eh     change       -0.2246576E-04 Eh
   gradient norm :     0.0028352 Eh/α   predicted    -0.1719207E-04 ( -23.47%)
   displ. norm   :     0.0745808 α      lambda       -0.2803927E-04
   maximum displ.:     0.0344090 α      in ANC's #7, #5, #4, ...

........................................................................
.............................. CYCLE   36 ..............................
........................................................................

 iter      E             dE          RMSdq      gap      omega  full diag
   1    -28.1255467 -0.281255E+02  0.255E-02    2.12       0.0  T
   2    -28.1255467 -0.391273E-07  0.174E-02    2.13       1.4  T
   3    -28.1255469 -0.158744E-06  0.119E-02    2.12       2.0  T
   4    -28.1255477 -0.790450E-06  0.473E-03    2.12       5.1  T
   5    -28.1255480 -0.346541E-06  0.150E-03    2.12      16.2  T
   6    -28.1255481 -0.140959E-07  0.446E-04    2.12      54.4  T
   7    -28.1255481 -0.104815E-08  0.172E-04    2.12     141.0  T
     SCC iter.                  ...        0 min,  0.738 sec
     gradient                   ...        0 min,  0.141 sec
 * total energy  :   -27.8232709 Eh     change       -0.1264631E-04 Eh
   gradient norm :     0.0022064 Eh/α   predicted    -0.1409757E-04 (  11.48%)
   displ. norm   :     0.1528509 α      lambda       -0.1771750E-04
   maximum displ.:     0.0949356 α      in ANC's #4, #7, #1, ...

........................................................................
.............................. CYCLE   37 ..............................
........................................................................

 iter      E             dE          RMSdq      gap      omega  full diag
   1    -28.1245178 -0.281245E+02  0.407E-02    2.13       0.0  T
   2    -28.1245180 -0.187169E-06  0.247E-02    2.13       1.0  T
   3    -28.1245145  0.349926E-05  0.187E-02    2.13       1.3  T
   4    -28.1245185 -0.398322E-05  0.466E-03    2.13       5.2  T
   5    -28.1245188 -0.291645E-06  0.213E-03    2.13      11.4  T
   6    -28.1245188 -0.356754E-07  0.353E-04    2.13      68.7  T
   7    -28.1245188 -0.635740E-09  0.166E-04    2.13     146.4  T
     SCC iter.                  ...        0 min,  0.688 sec
     gradient                   ...        0 min,  0.131 sec
 * total energy  :   -27.8232726 Eh     change       -0.1750755E-05 Eh
   gradient norm :     0.0031935 Eh/α   predicted    -0.9064324E-05 ( 417.74%)
   displ. norm   :     0.0731997 α      lambda       -0.1808443E-04
   maximum displ.:     0.0426088 α      in ANC's #4, #1, #7, ...

........................................................................
.............................. CYCLE   38 ..............................
........................................................................

 iter      E             dE          RMSdq      gap      omega  full diag
   1    -28.1252572 -0.281253E+02  0.211E-02    2.13       0.0  T
   2    -28.1252574 -0.145791E-06  0.127E-02    2.13       1.9  T
   3    -28.1252567  0.729957E-06  0.963E-03    2.13       2.5  T
   4    -28.1252576 -0.887981E-06  0.276E-03    2.13       8.8  T
   5    -28.1252577 -0.111994E-06  0.111E-03    2.13      21.9  T
   6    -28.1252577 -0.128855E-07  0.220E-04    2.13     110.2  T
   7    -28.1252577 -0.380673E-10  0.826E-05    2.13     293.5  T
     SCC iter.                  ...        0 min,  0.820 sec
     gradient                   ...        0 min,  0.095 sec
 * total energy  :   -27.8232806 Eh     change       -0.7986495E-05 Eh
   gradient norm :     0.0010006 Eh/α   predicted    -0.9090280E-05 (  13.82%)
   displ. norm   :     0.0461428 α      lambda       -0.3005304E-05
   maximum displ.:     0.0302983 α      in ANC's #4, #7, #3, ...

........................................................................
.............................. CYCLE   39 ..............................
........................................................................

 iter      E             dE          RMSdq      gap      omega  full diag
   1    -28.1252484 -0.281252E+02  0.123E-02    2.13       0.0  T
   2    -28.1252485 -0.301936E-07  0.744E-03    2.13       3.3  T
   3    -28.1252482  0.300985E-06  0.512E-03    2.13       4.7  T
   4    -28.1252485 -0.333773E-06  0.149E-03    2.13      16.3  T
   5    -28.1252485 -0.322648E-07  0.568E-04    2.13      42.7  T
   6    -28.1252485 -0.265812E-08  0.116E-04    2.13     209.1  T
     SCC iter.                  ...        0 min,  0.633 sec
     gradient                   ...        0 min,  0.160 sec
 * total energy  :   -27.8232840 Eh     change       -0.3394243E-05 Eh
   gradient norm :     0.0006387 Eh/α   predicted    -0.1505187E-05 ( -55.65%)
   displ. norm   :     0.0831811 α      lambda       -0.3400345E-05
   maximum displ.:     0.0553509 α      in ANC's #4, #7, #2, ...

   *** GEOMETRY OPTIMIZATION CONVERGED AFTER 39 ITERATIONS ***

------------------------------------------------------------------------
 total energy gain   :        -1.6152588 Eh    -1013.5902 kcal/mol
 total RMSD          :         1.4998340 a0        0.7937 Å
 total power (kW/mol):      -108.7400355 (step) -241.5729 (real)
------------------------------------------------------------------------

 ANCopt (total)                0 d,  0 h,  0 min, 17.555 sec
 optimizer setup                ...        0 min,  0.000 sec (  0.001%)
 model hessian                  ...        0 min,  0.005 sec (  0.029%)
 ANC generation                 ...        0 min,  0.001 sec (  0.005%)
 coordinate transformation      ...        0 min,  0.000 sec (  0.002%)
 single point calculation       ...        0 min, 17.492 sec ( 99.639%)
 optimization log               ...        0 min,  0.003 sec (  0.019%)
 hessian update                 ...        0 min,  0.040 sec (  0.225%)
 rational function              ...        0 min,  0.006 sec (  0.034%)

================
 final structure:
================
17
 xtb: 6.7.1 (edcfbbe)
C           -1.82864127795235       -1.74232146076406       -0.54440381671885
C           -1.22121895111767       -0.58189615369133        0.11225933196450
C           -1.52226605719484        0.75943971836125        0.26572336985361
C           -0.41826312812070        1.55303557406669        0.47252593714151
N            0.75457473833234        0.93669004193745        0.19483816150623
N            0.74832046354948       -0.36231542832449        0.00401428848457
C            2.02167288111888        1.62506104348699        0.17749379250163
S            0.03969357068303       -1.11561602896608        1.82282654177651
O            0.02828598707520        0.11688033142972        2.61747266803603
H           -2.70372966846107       -2.07163776941044        0.01858928077967
H           -1.11575174288984       -2.56174923095999       -0.58343452492353
H           -2.13564377335141       -1.49358914605247       -1.56142923601397
H           -2.52794556309387        1.14011778957302        0.25477397191672
H           -0.41511735057695        2.60104688422145        0.70949336705238
H            2.72116823159608        1.03591752027520       -0.41449245034638
H            2.41345946212849        1.72609677204122        1.19297547392754
H            1.90185958827847        2.61393274275943       -0.26491528680641

 Bond Distances (Angstroems)
 ---------------------------
C1-C2=1.4652         C1-H10=1.0914        C1-H11=1.0868        C1-H12=1.0911        C2-C1=1.4652         C2-C3=1.3832         
C2-S8=2.1911         C3-C2=1.3832         C3-C4=1.3753         C3-H13=1.0754        C4-C3=1.3753         C4-N5=1.3537         
C4-H14=1.0745        N5-C4=1.3537         N5-N6=1.3130         N5-C7=1.4421         N6-N5=1.3130         N6-S8=2.0923         
C7-N5=1.4421         C7-H15=1.0894        C7-H16=1.0931        C7-H17=1.0899        S8-C2=2.1911         S8-N6=2.0923         
S8-O9=1.4665         O9-S8=1.4665         H10-C1=1.0914        H11-C1=1.0868        H12-C1=1.0911        H13-C3=1.0754        
H14-C4=1.0745        H15-C7=1.0894        H16-C7=1.0931        H17-C7=1.0899        
 C  H  Rav=1.0865 sigma=0.0069  Rmin=1.0745  Rmax=1.0931     8
 C  C  Rav=1.4079 sigma=0.0406  Rmin=1.3753  Rmax=1.4652     3
 N  C  Rav=1.3979 sigma=0.0442  Rmin=1.3537  Rmax=1.4421     2
 N  N  Rav=1.3130 sigma=0.0000  Rmin=1.3130  Rmax=1.3130     1
 S  C  Rav=2.1911 sigma=0.0000  Rmin=2.1911  Rmax=2.1911     1
 S  N  Rav=2.0923 sigma=0.0000  Rmin=2.0923  Rmax=2.0923     1
 S  O  Rav=1.4665 sigma=0.0000  Rmin=1.4665  Rmax=1.4665     1

 selected bond angles (degree)
 --------------------
H10-C1-C2=109.89               H11-C1-C2=109.96               H11-C1-H10=108.48              H12-C1-C2=110.72               
H12-C1-H10=108.91              H12-C1-H11=108.84              C3-C2-C1=136.68                S8-C2-C1=113.30                
S8-C2-C3=105.95                C4-C3-C2=113.67                H13-C3-C2=123.07               H13-C3-C4=123.23               
N5-C4-C3=113.70                H14-C4-C3=126.75               H14-C4-N5=119.13               N6-N5-C4=118.43                
C7-N5-C4=123.12                C7-N5-N6=118.34                S8-N6-N5=103.38                H15-C7-N5=108.21               
H16-C7-N5=110.36               H16-C7-H15=108.94              H17-C7-N5=109.96               H17-C7-H15=109.92              
H17-C7-H16=109.43              N6-S8-C2= 55.15                O9-S8-C2=102.35                O9-S8-N6= 99.85                

 selected dihedral angles (degree)
 ---------------------------------
C3-C2-C1-H10=286.81           C3-C2-C1-H11=167.48           C3-C2-C1-H12= 47.16           S8-C2-C1-H10= 80.04           
S8-C2-C1-H11=320.70           S8-C2-C1-H12=200.39           C4-C3-C2-C1=205.93            C4-C3-C2-S8= 51.42            
H13-C3-C2-C1= 27.74           H13-C3-C2-S8=233.22           N5-C4-C3-C2= 13.86            N5-C4-C3-H13=192.05           
H14-C4-C3-C2=186.29           H14-C4-C3-H13=  4.48          N6-N5-C4-C3=348.12            N6-N5-C4-H14=175.06           
C7-N5-C4-C3=171.95            C7-N5-C4-H14=358.90           S8-N6-N5-C4=299.25            S8-N6-N5-C7=115.60            
H15-C7-N5-C4=200.91           H15-C7-N5-N6= 24.74           H16-C7-N5-C4= 81.79           H16-C7-N5-N6=265.62           
H17-C7-N5-C4=320.98           H17-C7-N5-N6=144.81           N6-S8-C2-C1=110.34            N6-S8-C2-C3=271.59            
O9-S8-C2-C1=203.84            O9-S8-C2-C3=  5.09            C2-S8-N6-N5= 90.54            O9-S8-N6-N5=352.28            
           -------------------------------------------------
          |                Final Singlepoint                |
           -------------------------------------------------

          ...................................................
          :                      SETUP                      :
          :.................................................:
          :  # basis functions                  50          :
          :  # atomic orbitals                  49          :
          :  # shells                           27          :
          :  # electrons                        50          :
          :  max. iterations                   250          :
          :  Hamiltonian                  GFN2-xTB          :
          :  restarted?                      false          :
          :  GBSA solvation                  false          :
          :  PC potential                    false          :
          :  electronic temp.          300.0000000     K    :
          :  accuracy                    1.0000000          :
          :  -> integral cutoff          0.2500000E+02      :
          :  -> integral neglect         0.1000000E-07      :
          :  -> SCF convergence          0.1000000E-05 Eh   :
          :  -> wf. convergence          0.1000000E-03 e    :
          :  Broyden damping             0.4000000          :
          :  net charge                          0          :
          :  unpaired electrons                  0          :
          ...................................................

 iter      E             dE          RMSdq      gap      omega  full diag
   1    -28.1252485 -0.281252E+02  0.544E-05    2.13       0.0  T
   2    -28.1252485 -0.552092E-11  0.355E-05    2.13     683.5  T
   3    -28.1252485 -0.510880E-11  0.221E-05    2.13    1098.9  T

   *** convergence criteria satisfied after 3 iterations ***

         #    Occupation            Energy/Eh            Energy/eV
      -------------------------------------------------------------
         1        2.0000           -0.7253636             -19.7381
       ...           ...                  ...                  ...
        19        2.0000           -0.4684948             -12.7484
        20        2.0000           -0.4629965             -12.5988
        21        2.0000           -0.4394008             -11.9567
        22        2.0000           -0.4172800             -11.3548
        23        2.0000           -0.4067414             -11.0680
        24        2.0000           -0.3795557             -10.3282
        25        2.0000           -0.3320344              -9.0351 (HOMO)
        26                         -0.2538447              -6.9075 (LUMO)
        27                         -0.2440116              -6.6399
        28                         -0.2282041              -6.2098
        29                         -0.1631415              -4.4393
        30                         -0.1221385              -3.3236
       ...                                ...                  ...
        49                          0.8690607              23.6483
      -------------------------------------------------------------
                  HL-Gap            0.0781897 Eh            2.1277 eV
             Fermi-level           -0.2929396 Eh           -7.9713 eV

 SCC (total)                   0 d,  0 h,  0 min,  0.734 sec
 SCC setup                      ...        0 min,  0.013 sec (  1.746%)
 Dispersion                     ...        0 min,  0.048 sec (  6.498%)
 classical contributions        ...        0 min,  0.031 sec (  4.208%)
 integral evaluation            ...        0 min,  0.077 sec ( 10.485%)
 iterations                     ...        0 min,  0.372 sec ( 50.629%)
 molecular gradient             ...        0 min,  0.194 sec ( 26.411%)
 printout                       ...        0 min,  0.000 sec (  0.019%)

         :::::::::::::::::::::::::::::::::::::::::::::::::::::
         ::                     SUMMARY                     ::
         :::::::::::::::::::::::::::::::::::::::::::::::::::::
         :: total energy             -27.823283988043 Eh    ::
         :: gradient norm              0.000641801692 Eh/a0 ::
         :: HOMO-LUMO gap              2.127650881062 eV    ::
         ::.................................................::
         :: SCC energy               -28.125199308993 Eh    ::
         :: -> isotropic ES            0.043274633588 Eh    ::
         :: -> anisotropic ES         -0.002119069324 Eh    ::
         :: -> anisotropic XC          0.014575571236 Eh    ::
         :: -> dispersion             -0.015542042322 Eh    ::
         :: repulsion energy           0.300582255190 Eh    ::
         :: add. restraining           0.001333065760 Eh    ::
         :: total charge               0.000000000000 e     ::
         :::::::::::::::::::::::::::::::::::::::::::::::::::::

           -------------------------------------------------
          |                Property Printout                |
           -------------------------------------------------

    * Orbital Energies and Occupations

         #    Occupation            Energy/Eh            Energy/eV
      -------------------------------------------------------------
         1        2.0000           -0.7253636             -19.7381
       ...           ...                  ...                  ...
        13        2.0000           -0.5077302             -13.8160
        14        2.0000           -0.5042957             -13.7226
        15        2.0000           -0.4947947             -13.4640
        16        2.0000           -0.4859720             -13.2240
        17        2.0000           -0.4825561             -13.1310
        18        2.0000           -0.4764733             -12.9655
        19        2.0000           -0.4684948             -12.7484
        20        2.0000           -0.4629965             -12.5988
        21        2.0000           -0.4394008             -11.9567
        22        2.0000           -0.4172800             -11.3548
        23        2.0000           -0.4067414             -11.0680
        24        2.0000           -0.3795557             -10.3282
        25        2.0000           -0.3320344              -9.0351 (HOMO)
        26                         -0.2538447              -6.9075 (LUMO)
        27                         -0.2440116              -6.6399
        28                         -0.2282041              -6.2098
        29                         -0.1631415              -4.4393
        30                         -0.1221385              -3.3236
        31                          0.0135300               0.3682
        32                          0.0256723               0.6986
        33                          0.0737669               2.0073
        34                          0.0939720               2.5571
        35                          0.1136532               3.0927
        36                          0.1214208               3.3040
       ...                                ...                  ...
        49                          0.8690607              23.6483
      -------------------------------------------------------------
                  HL-Gap            0.0781897 Eh            2.1277 eV
             Fermi-level           -0.2929396 Eh           -7.9713 eV

     #   Z          covCN         q      C6AA      α(0)
     1   6 C        3.753    -0.106    22.590     6.778
     2   6 C        3.148     0.028    27.116     8.518
     3   6 C        2.925    -0.058    29.444     8.899
     4   6 C        2.902     0.011    27.776     8.642
     5   7 N        2.857     0.111    19.334     6.531
     6   7 N        2.165    -0.277    27.715     7.812
     7   6 C        3.698    -0.058    21.783     6.675
     8  16 S        2.421     0.276   130.297    19.212
     9   8 O        0.859    -0.442    22.547     6.366
    10   1 H        0.924     0.066     2.126     2.280
    11   1 H        0.925     0.076     2.024     2.225
    12   1 H        0.924     0.062     2.181     2.310
    13   1 H        0.926     0.054     2.269     2.356
    14   1 H        0.926     0.047     2.363     2.404
    15   1 H        0.925     0.079     1.992     2.207
    16   1 H        0.924     0.073     2.055     2.242
    17   1 H        0.925     0.060     2.200     2.320

 Mol. C6AA /au·bohr⁶  :       3932.736293
 Mol. C8AA /au·bohr⁸  :     104135.539474
 Mol. α(0) /au        :         97.774762


Wiberg/Mayer (AO) data.
largest (>0.10) Wiberg bond orders for each atom

 ---------------------------------------------------------------------------
     #   Z sym  total        # sym  WBO       # sym  WBO       # sym  WBO
 ---------------------------------------------------------------------------
     1   6 C    3.994 --     2 C    1.065    11 H    0.969    12 H    0.963
                            10 H    0.954
     2   6 C    3.932 --     3 C    1.375     1 C    1.065     6 N    0.683
                             8 S    0.604
     3   6 C    3.977 --     4 C    1.470     2 C    1.375    13 H    0.943
     4   6 C    3.964 --     3 C    1.470     5 N    1.233    14 H    0.966
                             6 N    0.103
     5   7 N    3.681 --     6 N    1.243     4 C    1.233     7 C    0.983
                             8 S    0.106
     6   7 N    2.959 --     5 N    1.243     8 S    0.693     2 C    0.683
                             9 O    0.115     4 C    0.103
     7   6 C    3.965 --     5 N    0.983    15 H    0.978    17 H    0.978
                            16 H    0.969
     8  16 S    3.424 --     9 O    1.807     6 N    0.693     2 C    0.604
                             5 N    0.106
     9   8 O    2.109 --     8 S    1.807     6 N    0.115
    10   1 H    0.994 --     1 C    0.954
    11   1 H    0.994 --     1 C    0.969
    12   1 H    0.996 --     1 C    0.963
    13   1 H    0.997 --     3 C    0.943
    14   1 H    0.998 --     4 C    0.966
    15   1 H    0.993 --     7 C    0.978
    16   1 H    0.994 --     7 C    0.969
    17   1 H    0.996 --     7 C    0.978
 ---------------------------------------------------------------------------

Topologies differ in total number of bonds
Writing topology from bond orders to xtbtopo.mol

molecular dipole:
                 x           y           z       tot (Debye)
 q only:       -0.084       0.029      -1.224
   full:       -0.239       0.421      -1.041       2.918
molecular quadrupole (traceless):
                xx          xy          yy          xz          yz          zz
 q only:        5.726       5.852       7.210       1.000      -1.977     -12.936
  q+dip:        6.212       5.929       6.954       1.477      -1.579     -13.166
   full:        5.852       6.204       6.423       1.449      -2.032     -12.275

           -------------------------------------------------
          |                Geometry Summary                 |
           -------------------------------------------------

      molecular mass/u    :      144.1948042
   center of mass at/Å    :       -0.1023409      -0.0240359       0.7508358
  moments of inertia/u·Å² :        0.2506221E+03   0.3628224E+03   0.4484722E+03
rotational constants/cm⁻¹ :        0.6726314E-01   0.4646249E-01   0.3758903E-01

 * 15 selected distances

     #   Z          #   Z                                           value/Å
     1   6 C        2   6 C                                       1.4651811
     2   6 C        3   6 C                                       1.3832436
     3   6 C        4   6 C                                       1.3752762
     4   6 C        5   7 N                                       1.3537139
     5   7 N        6   7 N                                       1.3129617
     5   7 N        7   6 C                                       1.4421143
     8  16 S        9   8 O                                       1.4665061 (max)
     1   6 C       10   1 H                                       1.0914167
     1   6 C       11   1 H                                       1.0868289
     1   6 C       12   1 H                                       1.0910817
     3   6 C       13   1 H                                       1.0753730
     4   6 C       14   1 H                                       1.0744726 (min)
     7   6 C       15   1 H                                       1.0894181
     7   6 C       16   1 H                                       1.0931186
     7   6 C       17   1 H                                       1.0899305

 * 5 distinct bonds (by element types)

   Z      Z             #   av. dist./Å        max./Å        min./Å
   1 H    6 C           8     1.0864550     1.0931186     1.0744726
   6 C    6 C           3     1.4079003     1.4651811     1.3752762
   6 C    7 N           2     1.3979141     1.4421143     1.3537139
   7 N    7 N           1     1.3129617     1.3129617     1.3129617
   8 O   16 S           1     1.4665061     1.4665061     1.4665061


optimized geometry written to: xtbopt.xyz


           -------------------------------------------------
          | TOTAL ENERGY              -27.823283988043 Eh   |
          | GRADIENT NORM               0.000641801692 Eh/α |
          | HOMO-LUMO GAP               2.127650881062 eV   |
           -------------------------------------------------

------------------------------------------------------------------------
 * finished run on 2026/08/20 at 02:46:51.315     
------------------------------------------------------------------------
 total:
 * wall-time:     0 d,  0 h,  0 min, 20.001 sec
 *  cpu-time:     0 d,  0 h,  3 min, 47.738 sec
 * ratio c/w:    11.386 speedup
 SCF:
 * wall-time:     0 d,  0 h,  0 min,  1.475 sec
 *  cpu-time:     0 d,  0 h,  0 min, 11.192 sec
 * ratio c/w:     7.585 speedup
 ANC optimizer:
 * wall-time:     0 d,  0 h,  0 min, 18.311 sec
 *  cpu-time:     0 d,  0 h,  3 min, 35.909 sec
 * ratio c/w:    11.791 speedup

