17
 energy: -27.823283988043 gnorm: 0.000641801692 xtb: 6.7.1 (edcfbbe)
C           -1.82864127795235       -1.74232146076406       -0.54440381671885
C           -1.22121895111767       -0.58189615369133        0.11225933196450
C           -1.52226605719484        0.75943971836125        0.26572336985361
C           -0.41826312812070        1.55303557406669        0.47252593714151
N            0.75457473833234        0.93669004193745        0.19483816150623
N            0.74832046354948       -0.36231542832449        0.00401428848457
C            2.02167288111888        1.62506104348699        0.17749379250163
S            0.03969357068303       -1.11561602896608        1.82282654177651
O            0.02828598707520        0.11688033142972        2.61747266803603
H           -2.70372966846107       -2.07163776941044        0.01858928077967
H           -1.11575174288984       -2.56174923095999       -0.58343452492353
H           -2.13564377335141       -1.49358914605247       -1.56142923601397
H           -2.52794556309387        1.14011778957302        0.25477397191672
H           -0.41511735057695        2.60104688422145        0.70949336705238
H            2.72116823159608        1.03591752027520       -0.41449245034638
H            2.41345946212849        1.72609677204122        1.19297547392754
H            1.90185958827847        2.61393274275943       -0.26491528680641
