17
 xtb: 6.7.1 (edcfbbe)
C           -1.89136874190608       -1.71133931143900       -0.50022673043365
C           -1.29048298358996       -0.65123309438719        0.33626766933144
C           -1.46027268398951        0.69454282435995        0.27285539469406
C           -0.37102675858097        1.52530710268454        0.59061992256967
N            0.81761364188292        0.95414055380498        0.41503674885159
N            1.00032389054939       -0.34601710062964        0.43400754851315
C            2.01401367866634        1.69978972728867        0.10747390313585
S           -0.02774354004363       -1.11135490371633        1.52258048772619
O           -0.19850792545792       -0.23722481191760        2.69886429014214
H           -2.72862100958360       -2.08921978631397        0.00606698835740
H           -1.15312808494986       -2.52479865741771       -0.65304639446884
H           -2.15612417758106       -1.32414357202277       -1.48552862318713
H           -2.38972558375181        1.11734946715503       -0.07013956498882
H           -0.43350664907506        2.60797016181838        0.71143495813958
H            2.65680209601272        1.01990610314553       -0.47075294403863
H            2.53685824207498        1.96132325990561        1.02694136562097
H            1.78796847380123        2.58099285455386       -0.46606216586370
