 Entering Gaussian System
 *********************************************
 Gaussian 98:
 frequency output generated by the xtb code
 *********************************************
                         Standard orientation:
 --------------------------------------------------------------------
  Center     Atomic     Atomic              Coordinates (Angstroms)
  Number     Number      Type              X           Y           Z
 --------------------------------------------------------------------
    1          6             0       -1.831684   -1.696317   -0.515412
    2          6             0       -1.162497   -0.637314    0.284018
    3          6             0       -1.455652    0.719667    0.293671
    4          6             0       -0.391695    1.549319    0.575982
    5          7             0        0.805983    0.959827    0.418504
    6          7             0        0.849355   -0.364965    0.341396
    7          6             0        2.016003    1.676854    0.107996
    8         16             0       -0.034411   -1.144738    1.595941
    9          8             0       -0.191351   -0.222900    2.716879
   10          1             0       -2.711620   -2.065376    0.014435
   11          1             0       -1.150000   -2.531795   -0.657249
   12          1             0       -2.142306   -1.322694   -1.489919
   13          1             0       -2.410310    1.104359   -0.017629
   14          1             0       -0.435812    2.613314    0.718753
   15          1             0        2.655291    1.011929   -0.471432
   16          1             0        2.539375    1.955602    1.026088
   17          1             0        1.791825    2.574347   -0.467706
 --------------------------------------------------------------------
     1 basis functions        1 primitive gaussians
     1 alpha electrons        1 beta electrons

 Harmonic frequencies (cm**-1), IR intensities (km*mol⁻¹),
 Raman scattering activities (A**4/amu), Raman depolarization ratios,
 reduced masses (AMU), force constants (mDyne/A) and normal coordinates:
                      1                      2                      3
                        a                      a                      a 
 Frequencies --  -379.2366                72.9787                84.0250
 Red. masses --    14.0694                 1.2568                 1.7991
 Frc consts  --     0.0000                 0.0000                 0.0000
 IR Inten    --    20.9273                 0.5053                 0.1142
 Raman Activ --     0.0000                 0.0000                 0.0000
 Depolar     --     0.0000                 0.0000                 0.0000
 Atom AN      X      Y      Z        X      Y      Z        X      Y      Z
   1   6    -0.23  -0.06   0.06    -0.01   0.02  -0.03     0.00  -0.06   0.05
   2   6    -0.48  -0.05   0.20    -0.01  -0.01   0.02    -0.01  -0.02   0.00
   3   6    -0.02  -0.09  -0.08    -0.01  -0.01   0.03    -0.03  -0.03  -0.05
   4   6     0.08  -0.09   0.06    -0.02  -0.01   0.03    -0.03  -0.01  -0.05
   5   7     0.04  -0.02  -0.01    -0.01   0.01   0.01    -0.03   0.01  -0.04
   6   7     0.57   0.07   0.35     0.02   0.01   0.02    -0.01   0.00  -0.04
   7   6    -0.01   0.09  -0.00    -0.04   0.04  -0.05     0.04  -0.05   0.14
   8  16     0.03   0.13  -0.28     0.04  -0.02  -0.02     0.02   0.06  -0.00
   9   8    -0.03  -0.05  -0.07     0.04  -0.05   0.02     0.04   0.10  -0.04
  10   1    -0.06  -0.09  -0.03    -0.33   0.42  -0.27    -0.02   0.01   0.00
  11   1    -0.01   0.03   0.02    -0.21  -0.24   0.46    -0.01  -0.03   0.05
  12   1    -0.05  -0.01   0.02     0.49  -0.13  -0.22     0.03  -0.04  -0.00
  13   1     0.08   0.05  -0.20    -0.00  -0.00   0.01    -0.01  -0.01  -0.03
  14   1     0.01  -0.02  -0.03    -0.01  -0.00   0.01    -0.02  -0.00  -0.02
  15   1     0.01   0.03   0.00    -0.00   0.00   0.00    -0.20   0.18  -0.42
  16   1    -0.01   0.02   0.00    -0.01   0.04  -0.02     0.27  -0.51   0.05
  17   1    -0.01   0.03   0.01    -0.02  -0.01  -0.04    -0.02   0.28   0.52
                      4                      5                      6
                        a                      a                      a 
 Frequencies --   107.1365               166.2946               214.9468
 Red. masses --    10.2272                12.7585                11.6730
 Frc consts  --     0.0000                 0.0000                 0.0000
 IR Inten    --     5.2585                 2.8361                 5.2635
 Raman Activ --     0.0000                 0.0000                 0.0000
 Depolar     --     0.0000                 0.0000                 0.0000
 Atom AN      X      Y      Z        X      Y      Z        X      Y      Z
   1   6    -0.17  -0.10   0.19    -0.16   0.00   0.28     0.31   0.06  -0.22
   2   6    -0.05  -0.02  -0.02     0.13   0.06  -0.03    -0.28   0.10   0.21
   3   6    -0.07  -0.02  -0.08     0.05   0.07  -0.23    -0.16   0.11  -0.06
   4   6    -0.05  -0.04  -0.09    -0.02   0.19  -0.42    -0.09   0.09  -0.22
   5   7    -0.08  -0.05  -0.14     0.01   0.18  -0.08    -0.15  -0.01  -0.12
   6   7    -0.07  -0.05  -0.23    -0.01   0.15   0.06    -0.09  -0.02   0.10
   7   6     0.07  -0.00   0.57     0.08   0.10   0.05    -0.02  -0.17   0.03
   8  16     0.07   0.05  -0.12     0.06  -0.13  -0.02    -0.12   0.03   0.06
   9   8     0.31   0.21  -0.19    -0.12  -0.52   0.31     0.48  -0.15   0.26
  10   1    -0.05   0.03   0.09    -0.02   0.07   0.16     0.07  -0.12  -0.20
  11   1    -0.07  -0.06   0.09    -0.09  -0.04   0.08     0.20   0.10  -0.04
  12   1    -0.05  -0.07   0.04    -0.10  -0.04   0.08     0.17   0.05  -0.07
  13   1    -0.02  -0.01  -0.03     0.00  -0.02  -0.08    -0.02   0.04  -0.09
  14   1    -0.01  -0.01  -0.02    -0.02   0.06  -0.19    -0.00   0.04  -0.13
  15   1     0.15  -0.01   0.32     0.03   0.03   0.02    -0.01  -0.08   0.04
  16   1    -0.17   0.05   0.26     0.01   0.00   0.03    -0.03  -0.07   0.03
  17   1     0.12  -0.03   0.08     0.05   0.04   0.03     0.05  -0.04  -0.01
                      7                      8                      9
                        a                      a                      a 
 Frequencies --   251.3695               282.2054               335.5217
 Red. masses --    12.7765                12.9599                11.6779
 Frc consts  --     0.0000                 0.0000                 0.0000
 IR Inten    --     0.1890                 9.9332                 3.3739
 Raman Activ --     0.0000                 0.0000                 0.0000
 Depolar     --     0.0000                 0.0000                 0.0000
 Atom AN      X      Y      Z        X      Y      Z        X      Y      Z
   1   6    -0.26   0.33  -0.32    -0.20   0.07  -0.06     0.11   0.02   0.06
   2   6     0.07  -0.20   0.13     0.13  -0.01  -0.20    -0.04   0.09   0.05
   3   6    -0.01  -0.20   0.10     0.09  -0.03  -0.39     0.08   0.12   0.08
   4   6    -0.05  -0.07  -0.24    -0.02  -0.04  -0.03     0.26  -0.10  -0.03
   5   7    -0.04  -0.03  -0.23     0.04  -0.07   0.44     0.15  -0.24  -0.35
   6   7     0.07  -0.05   0.06     0.01  -0.08   0.12     0.03  -0.27  -0.11
   7   6    -0.03   0.06   0.07    -0.21   0.15  -0.04    -0.15   0.44   0.02
   8  16     0.29  -0.04   0.29    -0.17  -0.11   0.12    -0.28  -0.08   0.10
   9   8    -0.09   0.10   0.07     0.49   0.10   0.01    -0.02  -0.05   0.09
  10   1    -0.11   0.11  -0.15    -0.04   0.08   0.04     0.03  -0.02   0.00
  11   1    -0.17   0.05  -0.24    -0.12  -0.02  -0.07     0.07   0.03   0.05
  12   1    -0.05   0.29  -0.03    -0.10   0.05   0.01     0.04  -0.02   0.00
  13   1    -0.02  -0.10   0.04     0.05  -0.02  -0.19     0.03   0.08   0.04
  14   1    -0.03  -0.01  -0.13    -0.01  -0.01  -0.01     0.13  -0.03  -0.01
  15   1     0.03   0.06   0.02    -0.07   0.08  -0.07     0.10   0.32  -0.05
  16   1    -0.06  -0.01   0.06     0.01   0.10  -0.07    -0.13   0.13   0.05
  17   1    -0.00   0.04   0.05    -0.18   0.02  -0.00    -0.19   0.15   0.10
                     10                     11                     12
                        a                      a                      a 
 Frequencies --   424.4398               472.9268               495.9832
 Red. masses --    15.9176                16.0217                11.5619
 Frc consts  --     0.0000                 0.0000                 0.0000
 IR Inten    --     8.8880                15.9136                 0.6414
 Raman Activ --     0.0000                 0.0000                 0.0000
 Depolar     --     0.0000                 0.0000                 0.0000
 Atom AN      X      Y      Z        X      Y      Z        X      Y      Z
   1   6     0.15   0.14   0.16    -0.02  -0.09  -0.05     0.17   0.29   0.18
   2   6    -0.03   0.08   0.29     0.22  -0.04  -0.26     0.31   0.24  -0.09
   3   6    -0.04   0.11   0.16    -0.07  -0.09   0.40    -0.09   0.09  -0.14
   4   6     0.02   0.15  -0.35    -0.06   0.06  -0.12    -0.12  -0.01   0.21
   5   7    -0.00  -0.02   0.30    -0.02   0.16  -0.20    -0.30  -0.16  -0.30
   6   7     0.00  -0.05   0.08     0.24   0.12   0.35     0.30  -0.10   0.18
   7   6    -0.10   0.02   0.03     0.14   0.03  -0.03    -0.30  -0.23   0.02
   8  16     0.06  -0.42  -0.08    -0.44  -0.14  -0.04     0.07  -0.05  -0.03
   9   8    -0.10   0.16  -0.47     0.26   0.07  -0.09    -0.05  -0.01  -0.05
  10   1     0.03  -0.00   0.00     0.01   0.03   0.06     0.06   0.14   0.12
  11   1     0.08   0.07   0.06    -0.05  -0.06  -0.02     0.00   0.05   0.04
  12   1     0.07   0.04   0.04    -0.06  -0.06  -0.01     0.00   0.06   0.06
  13   1    -0.02  -0.00   0.02    -0.07  -0.05   0.23    -0.00  -0.02  -0.16
  14   1     0.03   0.06  -0.24    -0.06   0.02  -0.05     0.03  -0.00   0.07
  15   1    -0.04   0.02  -0.01     0.03  -0.01   0.01    -0.08  -0.07   0.03
  16   1     0.01   0.04  -0.02     0.02  -0.02   0.01    -0.11  -0.09   0.03
  17   1    -0.08  -0.01   0.00     0.09   0.02  -0.01    -0.04  -0.05   0.01
                     13                     14                     15
                        a                      a                      a 
 Frequencies --   562.1131               638.7396               701.2410
 Red. masses --    18.0004                14.4369                12.8696
 Frc consts  --     0.0000                 0.0000                 0.0000
 IR Inten    --    30.5711                 9.2954                18.3557
 Raman Activ --     0.0000                 0.0000                 0.0000
 Depolar     --     0.0000                 0.0000                 0.0000
 Atom AN      X      Y      Z        X      Y      Z        X      Y      Z
   1   6    -0.02  -0.02   0.01     0.18   0.25   0.22     0.03   0.11   0.03
   2   6    -0.12  -0.03   0.16     0.21  -0.16   0.35    -0.09   0.20  -0.12
   3   6     0.14   0.00  -0.30     0.02  -0.33   0.00    -0.52   0.08  -0.08
   4   6    -0.02   0.11   0.33    -0.09  -0.20   0.04    -0.19  -0.28  -0.12
   5   7    -0.04   0.25  -0.32     0.07   0.08   0.05     0.12   0.03   0.13
   6   7    -0.13   0.21   0.04     0.00   0.04  -0.23     0.33  -0.03  -0.27
   7   6     0.19   0.11  -0.08     0.14   0.06  -0.03     0.28   0.12  -0.05
   8  16    -0.06  -0.49   0.26    -0.38   0.16  -0.21     0.03  -0.16   0.24
   9   8     0.03   0.11  -0.19     0.03  -0.05   0.01    -0.04   0.03   0.05
  10   1    -0.02  -0.04  -0.05     0.01   0.09   0.00     0.02   0.02   0.03
  11   1     0.01   0.01  -0.00    -0.02   0.04  -0.03     0.04   0.05   0.05
  12   1     0.03   0.02   0.00     0.10   0.23   0.11    -0.01  -0.03  -0.01
  13   1     0.07   0.00  -0.17     0.05  -0.17  -0.21    -0.15   0.06   0.02
  14   1    -0.06   0.03   0.13    -0.11  -0.05  -0.04    -0.06  -0.11   0.20
  15   1     0.04   0.00   0.00     0.01  -0.02  -0.00     0.03  -0.01  -0.02
  16   1     0.02  -0.01   0.01     0.06   0.02  -0.02     0.11   0.04  -0.04
  17   1     0.12   0.05  -0.02     0.06   0.01  -0.02     0.09   0.02  -0.04
                     16                     17                     18
                        a                      a                      a 
 Frequencies --   708.5319               774.4845               795.2296
 Red. masses --     6.8444                12.0798                 3.5591
 Frc consts  --     0.0000                 0.0000                 0.0000
 IR Inten    --    12.8638                46.4692                 1.4376
 Raman Activ --     0.0000                 0.0000                 0.0000
 Depolar     --     0.0000                 0.0000                 0.0000
 Atom AN      X      Y      Z        X      Y      Z        X      Y      Z
   1   6    -0.06  -0.10  -0.09    -0.05  -0.08  -0.00    -0.01  -0.01   0.01
   2   6     0.02   0.05  -0.16    -0.02  -0.08   0.11     0.01  -0.04   0.05
   3   6    -0.04  -0.04   0.42     0.27   0.01  -0.12     0.07  -0.04   0.14
   4   6     0.08   0.12   0.03     0.05   0.21  -0.04     0.05   0.18  -0.39
   5   7    -0.05   0.01   0.03    -0.11   0.06   0.06    -0.02  -0.01  -0.01
   6   7     0.13   0.11  -0.32     0.47   0.13  -0.46    -0.04  -0.01   0.07
   7   6    -0.08  -0.04   0.01    -0.25  -0.12   0.06    -0.06  -0.04   0.01
   8  16    -0.03  -0.08   0.17    -0.21  -0.07   0.14    -0.00   0.00  -0.03
   9   8    -0.02   0.02   0.07    -0.01   0.02   0.09     0.00   0.00  -0.01
  10   1    -0.00  -0.02   0.00    -0.04  -0.08  -0.09    -0.01  -0.02  -0.03
  11   1     0.00  -0.02   0.01     0.02   0.01  -0.03     0.00   0.00  -0.01
  12   1    -0.04  -0.09  -0.04     0.05   0.04   0.00     0.02   0.02   0.01
  13   1     0.27   0.07  -0.65    -0.07  -0.04   0.37     0.08  -0.06  -0.22
  14   1     0.05   0.07  -0.21     0.03   0.05   0.06    -0.01  -0.08   0.84
  15   1    -0.05  -0.05   0.01    -0.12  -0.11   0.03    -0.00   0.01   0.00
  16   1    -0.01  -0.02  -0.00    -0.03  -0.06   0.00    -0.02  -0.00   0.00
  17   1     0.01  -0.01  -0.01    -0.00  -0.03  -0.01    -0.04  -0.01   0.01
                     19                     20                     21
                        a                      a                      a 
 Frequencies --   954.0879               978.7507              1020.2692
 Red. masses --     8.8669                 6.8292                 5.0242
 Frc consts  --     0.0000                 0.0000                 0.0000
 IR Inten    --     6.7892                 4.9196                37.4090
 Raman Activ --     0.0000                 0.0000                 0.0000
 Depolar     --     0.0000                 0.0000                 0.0000
 Atom AN      X      Y      Z        X      Y      Z        X      Y      Z
   1   6     0.05  -0.36  -0.07    -0.21   0.19   0.02    -0.26  -0.15   0.28
   2   6     0.14  -0.03   0.22     0.01   0.00  -0.11     0.28   0.07  -0.13
   3   6    -0.19   0.26  -0.03     0.14  -0.12   0.03    -0.15   0.09  -0.01
   4   6    -0.16   0.36   0.13    -0.23   0.33   0.10     0.06  -0.12   0.00
   5   7    -0.07  -0.08   0.03    -0.10  -0.09   0.04     0.04  -0.03   0.00
   6   7     0.13  -0.33  -0.02     0.06  -0.35  -0.02    -0.05   0.17   0.06
   7   6     0.19   0.09  -0.03     0.21   0.07  -0.04    -0.02  -0.05  -0.02
   8  16    -0.02   0.06  -0.06     0.02   0.05  -0.00     0.01  -0.00  -0.02
   9   8    -0.01  -0.02  -0.02    -0.00  -0.01   0.01    -0.00  -0.00  -0.02
  10   1    -0.08   0.07  -0.05     0.01  -0.22  -0.09    -0.22  -0.39  -0.44
  11   1    -0.24  -0.25  -0.27     0.26   0.26   0.23     0.14   0.15  -0.09
  12   1     0.00   0.20   0.09     0.04  -0.19  -0.12     0.30   0.27   0.07
  13   1    -0.09  -0.08  -0.10    -0.09  -0.38  -0.04    -0.03   0.04  -0.03
  14   1     0.11   0.12   0.00    -0.12   0.10  -0.03     0.14  -0.02  -0.02
  15   1     0.06   0.06  -0.03     0.10   0.08  -0.03     0.04   0.03  -0.00
  16   1     0.07   0.05  -0.03     0.05   0.06  -0.02    -0.05  -0.01   0.02
  17   1     0.02   0.01  -0.01     0.00   0.01  -0.00    -0.03  -0.00   0.02
                     22                     23                     24
                        a                      a                      a 
 Frequencies --  1062.3989              1085.9868              1090.7857
 Red. masses --     5.2427                 3.4182                 4.1601
 Frc consts  --     0.0000                 0.0000                 0.0000
 IR Inten    --     1.5131                15.6926                 0.9378
 Raman Activ --     0.0000                 0.0000                 0.0000
 Depolar     --     0.0000                 0.0000                 0.0000
 Atom AN      X      Y      Z        X      Y      Z        X      Y      Z
   1   6     0.07   0.01  -0.01    -0.07   0.01  -0.16    -0.04  -0.01  -0.05
   2   6    -0.07   0.01  -0.01     0.09   0.00   0.18     0.03   0.02   0.07
   3   6    -0.05  -0.05  -0.02    -0.16   0.03  -0.05    -0.08   0.02  -0.01
   4   6    -0.05   0.10   0.03     0.16  -0.08   0.02     0.04  -0.02   0.02
   5   7     0.03  -0.13   0.11     0.04  -0.05   0.05     0.08   0.04  -0.22
   6   7     0.04   0.33  -0.06    -0.05   0.22   0.02    -0.00   0.16  -0.01
   7   6     0.14  -0.35  -0.18    -0.08   0.07  -0.07     0.07  -0.17   0.37
   8  16    -0.02  -0.04   0.00    -0.03   0.00  -0.01    -0.02  -0.01  -0.01
   9   8     0.00   0.04   0.05     0.01   0.00  -0.01     0.00   0.01   0.01
  10   1     0.02   0.07   0.05     0.05  -0.00   0.07     0.01  -0.01   0.01
  11   1    -0.05  -0.04  -0.02     0.02   0.01   0.08     0.01   0.00   0.02
  12   1    -0.03   0.01   0.01    -0.09  -0.19  -0.09    -0.03  -0.06  -0.03
  13   1    -0.05  -0.09   0.01    -0.22  -0.48  -0.07    -0.09  -0.18  -0.03
  14   1    -0.06   0.03  -0.01     0.61   0.00   0.02     0.06   0.00  -0.01
  15   1     0.47   0.37  -0.07    -0.03  -0.06   0.06    -0.14   0.03  -0.17
  16   1    -0.33   0.02   0.13    -0.08  -0.11   0.06     0.38   0.33  -0.23
  17   1    -0.30  -0.03   0.18     0.17   0.07  -0.01    -0.50  -0.26  -0.06
                     25                     26                     27
                        a                      a                      a 
 Frequencies --  1132.7382              1158.5104              1185.7215
 Red. masses --    19.4523                10.3220                 5.3032
 Frc consts  --     0.0000                 0.0000                 0.0000
 IR Inten    --   320.5786                25.6547                 4.4756
 Raman Activ --     0.0000                 0.0000                 0.0000
 Depolar     --     0.0000                 0.0000                 0.0000
 Atom AN      X      Y      Z        X      Y      Z        X      Y      Z
   1   6     0.09   0.01   0.10     0.24   0.06   0.25    -0.02   0.12  -0.00
   2   6    -0.15   0.02  -0.16    -0.41  -0.04  -0.44     0.10  -0.24   0.03
   3   6     0.04  -0.05   0.02     0.05  -0.19   0.04    -0.02  -0.18  -0.05
   4   6     0.03   0.03   0.00     0.05   0.13   0.01    -0.17   0.07  -0.03
   5   7    -0.04  -0.03   0.00    -0.08  -0.10   0.01    -0.35  -0.10   0.05
   6   7    -0.03  -0.02   0.01    -0.04   0.05  -0.01     0.02   0.06  -0.01
   7   6     0.02   0.07   0.01     0.06   0.08   0.04     0.24   0.07   0.01
   8  16     0.08  -0.35  -0.40     0.03   0.10   0.22    -0.01  -0.00  -0.04
   9   8    -0.08   0.48   0.59     0.03  -0.18  -0.20    -0.00   0.03   0.04
  10   1    -0.01   0.04  -0.01    -0.03   0.12  -0.00     0.04  -0.02   0.04
  11   1    -0.03  -0.03  -0.05    -0.07  -0.05  -0.11     0.06   0.07   0.09
  12   1     0.04   0.11   0.06     0.10   0.30   0.15    -0.01  -0.06  -0.03
  13   1    -0.04  -0.13   0.00    -0.07  -0.23   0.02     0.18   0.50   0.10
  14   1     0.05   0.01  -0.01     0.25   0.05  -0.01     0.53   0.04   0.04
  15   1    -0.05  -0.03   0.00    -0.05  -0.03  -0.01     0.05   0.07  -0.06
  16   1     0.05   0.00  -0.02     0.08   0.02  -0.03     0.08   0.08  -0.04
  17   1     0.04   0.00  -0.03     0.02  -0.01  -0.03    -0.05  -0.03  -0.02
                     28                     29                     30
                        a                      a                      a 
 Frequencies --  1295.7282              1381.9593              1388.0777
 Red. masses --    11.9582                 9.8223                 3.2212
 Frc consts  --     0.0000                 0.0000                 0.0000
 IR Inten    --    36.8992                23.5484                 9.4313
 Raman Activ --     0.0000                 0.0000                 0.0000
 Depolar     --     0.0000                 0.0000                 0.0000
 Atom AN      X      Y      Z        X      Y      Z        X      Y      Z
   1   6    -0.02  -0.10  -0.06    -0.04  -0.16  -0.04     0.20   0.31   0.19
   2   6     0.05   0.27   0.10    -0.05   0.29   0.02    -0.03   0.05  -0.02
   3   6     0.23   0.08   0.05     0.30   0.05   0.08     0.07   0.00   0.02
   4   6     0.05  -0.17  -0.07    -0.10  -0.34  -0.07    -0.05  -0.07  -0.02
   5   7    -0.44  -0.53   0.05    -0.26   0.46   0.05    -0.03   0.10   0.01
   6   7    -0.01   0.32  -0.00     0.03  -0.25  -0.01    -0.00  -0.05  -0.00
   7   6     0.25   0.22  -0.01     0.21  -0.06  -0.08     0.00  -0.03  -0.00
   8  16    -0.00   0.02   0.02     0.01   0.00   0.01     0.00   0.00   0.01
   9   8     0.00  -0.02  -0.03    -0.01  -0.01  -0.01     0.00  -0.00  -0.00
  10   1    -0.02  -0.00  -0.03    -0.04   0.10   0.01    -0.04  -0.39  -0.36
  11   1    -0.04  -0.05  -0.05     0.06   0.03  -0.04    -0.43  -0.30  -0.19
  12   1    -0.04  -0.04  -0.01     0.00   0.07   0.03    -0.18  -0.41  -0.08
  13   1     0.01  -0.11   0.03     0.05  -0.12  -0.01     0.02  -0.02  -0.00
  14   1    -0.24  -0.07  -0.01     0.21  -0.09  -0.01     0.06  -0.02  -0.00
  15   1    -0.07  -0.06  -0.02    -0.07  -0.09  -0.04     0.02   0.02  -0.01
  16   1     0.08  -0.00  -0.02    -0.23   0.08   0.10    -0.01   0.03  -0.00
  17   1     0.05  -0.00  -0.07    -0.26   0.01   0.14    -0.00   0.00   0.01
                     31                     32                     33
                        a                      a                      a 
 Frequencies --  1393.1453              1449.1444              1456.5017
 Red. masses --     3.9221                 1.6115                 4.3819
 Frc consts  --     0.0000                 0.0000                 0.0000
 IR Inten    --     2.5387                 8.7814                 0.2958
 Raman Activ --     0.0000                 0.0000                 0.0000
 Depolar     --     0.0000                 0.0000                 0.0000
 Atom AN      X      Y      Z        X      Y      Z        X      Y      Z
   1   6     0.02   0.09   0.02    -0.00  -0.01   0.00    -0.08   0.13  -0.08
   2   6     0.03  -0.18  -0.02     0.00   0.03   0.01    -0.01  -0.25  -0.06
   3   6    -0.17  -0.01  -0.04     0.01  -0.03  -0.00    -0.05   0.22   0.01
   4   6     0.12   0.17   0.04    -0.01   0.01  -0.00     0.25  -0.08  -0.00
   5   7     0.11  -0.11  -0.02    -0.02  -0.06  -0.03    -0.24   0.08   0.04
   6   7    -0.01   0.03   0.00    -0.01   0.02  -0.00     0.02  -0.03  -0.01
   7   6     0.27   0.18  -0.11    -0.09  -0.06  -0.19     0.06  -0.10  -0.01
   8  16    -0.00   0.00  -0.01     0.00  -0.00  -0.00    -0.00   0.01   0.00
   9   8     0.00   0.00   0.01    -0.00   0.00   0.00     0.00  -0.00  -0.00
  10   1     0.03  -0.06  -0.00    -0.01   0.01  -0.01     0.29  -0.33   0.26
  11   1    -0.03  -0.02   0.03     0.01   0.01  -0.02    -0.19  -0.17   0.22
  12   1     0.01  -0.03  -0.01    -0.01  -0.01  -0.00     0.28   0.20  -0.02
  13   1    -0.04   0.05   0.00     0.01   0.01   0.01    -0.05  -0.06  -0.04
  14   1    -0.09   0.05   0.00     0.02   0.00  -0.00    -0.09  -0.03  -0.00
  15   1    -0.35  -0.44   0.10     0.19  -0.26   0.50    -0.07   0.03  -0.14
  16   1    -0.31  -0.14   0.23     0.31   0.22  -0.26    -0.10   0.31  -0.04
  17   1    -0.46  -0.02   0.12    -0.09   0.32   0.52     0.16   0.11   0.13
                     34                     35                     36
                        a                      a                      a 
 Frequencies --  1465.8498              1469.8495              1483.8219
 Red. masses --     2.3814                 1.7019                 8.8250
 Frc consts  --     0.0000                 0.0000                 0.0000
 IR Inten    --    10.5622                 5.1997                13.7383
 Raman Activ --     0.0000                 0.0000                 0.0000
 Depolar     --     0.0000                 0.0000                 0.0000
 Atom AN      X      Y      Z        X      Y      Z        X      Y      Z
   1   6    -0.10   0.04  -0.05    -0.14   0.02   0.16    -0.05  -0.05  -0.10
   2   6    -0.04   0.06  -0.01    -0.02   0.04   0.03    -0.02   0.31   0.05
   3   6     0.13   0.07   0.04    -0.03  -0.08  -0.01     0.16  -0.16   0.03
   4   6    -0.21  -0.08  -0.02     0.03   0.04   0.00    -0.50   0.06  -0.01
   5   7     0.06   0.03  -0.01     0.01  -0.02   0.00     0.42  -0.22  -0.07
   6   7     0.01   0.00  -0.00    -0.00   0.00  -0.00    -0.02   0.11   0.01
   7   6    -0.06   0.15  -0.02     0.01  -0.04   0.01    -0.02  -0.07   0.03
   8  16     0.00  -0.00   0.00    -0.00   0.00  -0.00    -0.00  -0.02  -0.00
   9   8     0.00  -0.00  -0.00    -0.00  -0.00  -0.00     0.00   0.01  -0.00
  10   1     0.23  -0.22   0.25     0.07   0.15   0.24     0.11  -0.15   0.08
  11   1    -0.16  -0.13   0.01     0.02   0.13  -0.61    -0.11  -0.12   0.12
  12   1     0.33   0.10  -0.07     0.49  -0.34  -0.28     0.08   0.13   0.02
  13   1     0.03  -0.02  -0.01     0.00   0.02   0.02     0.08   0.05   0.03
  14   1     0.07  -0.02  -0.01    -0.01   0.01   0.00     0.14   0.02   0.00
  15   1     0.24   0.02   0.26    -0.07  -0.01  -0.07    -0.23  -0.10  -0.13
  16   1     0.23  -0.47   0.01    -0.07   0.12   0.00    -0.17   0.23   0.03
  17   1    -0.27  -0.17  -0.18     0.07   0.04   0.04     0.14   0.09   0.10
                     37                     38                     39
                        a                      a                      a 
 Frequencies --  1500.2618              2968.7680              2981.2659
 Red. masses --    11.1644                 1.8081                 1.7823
 Frc consts  --     0.0000                 0.0000                 0.0000
 IR Inten    --    37.2357                16.2863                16.0699
 Raman Activ --     0.0000                 0.0000                 0.0000
 Depolar     --     0.0000                 0.0000                 0.0000
 Atom AN      X      Y      Z        X      Y      Z        X      Y      Z
   1   6    -0.06  -0.06  -0.11    -0.00  -0.00   0.00     0.21   0.07  -0.15
   2   6     0.06   0.49   0.08    -0.00   0.00   0.00     0.01   0.01   0.00
   3   6    -0.22  -0.59  -0.10    -0.00  -0.00   0.00    -0.00  -0.00  -0.00
   4   6     0.39   0.19   0.03     0.00  -0.00  -0.00     0.00  -0.00  -0.00
   5   7    -0.12   0.10   0.04    -0.01  -0.01  -0.00    -0.00   0.00   0.00
   6   7    -0.04  -0.12  -0.00     0.00   0.00  -0.00    -0.00  -0.00   0.00
   7   6    -0.01   0.01   0.00    -0.10  -0.05  -0.24    -0.00  -0.00  -0.00
   8  16     0.01   0.00   0.00    -0.00  -0.00  -0.00     0.00   0.00  -0.00
   9   8    -0.01  -0.01  -0.01     0.00   0.00   0.00    -0.00  -0.00   0.00
  10   1     0.07  -0.13   0.03     0.01   0.00  -0.01    -0.77  -0.32   0.47
  11   1    -0.11  -0.11   0.07    -0.00  -0.00   0.00    -0.02   0.07  -0.01
  12   1     0.04   0.07   0.00    -0.00   0.00  -0.00     0.06  -0.03   0.06
  13   1    -0.00   0.08   0.10    -0.00   0.00  -0.00     0.00  -0.00   0.00
  14   1    -0.04   0.05   0.01    -0.00  -0.00  -0.00    -0.00   0.00   0.00
  15   1     0.04   0.03   0.01    -0.07   0.05   0.01    -0.00   0.00  -0.00
  16   1     0.03  -0.03  -0.01     0.45   0.24   0.80     0.01   0.00   0.01
  17   1    -0.01  -0.02  -0.03     0.02  -0.12   0.03    -0.00   0.00  -0.00
                     40                     41                     42
                        a                      a                      a 
 Frequencies --  3007.8298              3018.5140              3030.2319
 Red. masses --     1.5616                 1.6965                 1.7590
 Frc consts  --     0.0000                 0.0000                 0.0000
 IR Inten    --    23.4154                22.0430                 2.8541
 Raman Activ --     0.0000                 0.0000                 0.0000
 Depolar     --     0.0000                 0.0000                 0.0000
 Atom AN      X      Y      Z        X      Y      Z        X      Y      Z
   1   6    -0.00   0.00  -0.00     0.10  -0.09   0.21    -0.00   0.01  -0.00
   2   6     0.00   0.00  -0.00     0.01   0.00   0.01     0.00   0.00   0.00
   3   6     0.00  -0.00   0.00    -0.00   0.00  -0.00    -0.00  -0.00   0.00
   4   6     0.00   0.00  -0.00     0.00  -0.00   0.00    -0.00   0.00  -0.00
   5   7    -0.01  -0.01   0.00    -0.00  -0.00  -0.00     0.01  -0.00  -0.00
   6   7    -0.00   0.00   0.00     0.00   0.00  -0.00    -0.00   0.00   0.00
   7   6     0.02  -0.19   0.12     0.00  -0.00   0.00     0.16  -0.18  -0.10
   8  16     0.00  -0.00  -0.00    -0.00  -0.00  -0.00     0.00  -0.00   0.00
   9   8    -0.00   0.00   0.00     0.00   0.00   0.00     0.00   0.00   0.00
  10   1     0.00   0.00  -0.00    -0.06  -0.04   0.07    -0.00   0.00   0.00
  11   1    -0.00   0.00  -0.00    -0.02   0.02   0.03     0.01  -0.02  -0.00
  12   1     0.00  -0.01   0.01    -0.27   0.34  -0.86     0.00  -0.00   0.01
  13   1    -0.00   0.00  -0.00     0.01  -0.00   0.00    -0.00   0.00   0.00
  14   1     0.00  -0.01  -0.00    -0.00   0.00   0.00    -0.00  -0.01  -0.00
  15   1     0.09  -0.11  -0.06    -0.00   0.00   0.00    -0.55   0.58   0.51
  16   1     0.08   0.01   0.14     0.00  -0.00  -0.00    -0.01  -0.05  -0.08
  17   1    -0.21   0.78  -0.50    -0.00   0.02  -0.01    -0.02   0.10  -0.09
                     43                     44                     45
                        a                      a                      a 
 Frequencies --  3039.5513              3118.5876              3138.8068
 Red. masses --     1.6557                 1.8123                 1.8794
 Frc consts  --     0.0000                 0.0000                 0.0000
 IR Inten    --     8.2761                 6.5647                14.6233
 Raman Activ --     0.0000                 0.0000                 0.0000
 Depolar     --     0.0000                 0.0000                 0.0000
 Atom AN      X      Y      Z        X      Y      Z        X      Y      Z
   1   6     0.14  -0.20  -0.03     0.00  -0.00   0.00    -0.00   0.00  -0.00
   2   6     0.00  -0.01  -0.00     0.01   0.00   0.00    -0.00  -0.00   0.00
   3   6    -0.00   0.00  -0.00     0.24  -0.09   0.07    -0.07   0.02  -0.02
   4   6     0.00   0.00   0.00    -0.00   0.06   0.01    -0.01   0.27   0.04
   5   7     0.00  -0.00  -0.00    -0.00   0.00   0.00     0.01   0.01  -0.00
   6   7     0.00   0.00   0.00    -0.00  -0.00  -0.00     0.00  -0.00   0.00
   7   6     0.00  -0.00  -0.00    -0.00   0.00  -0.00    -0.00   0.00   0.00
   8  16    -0.00  -0.00  -0.00     0.00  -0.00  -0.00    -0.00  -0.00   0.00
   9   8     0.00   0.00   0.00    -0.00   0.00  -0.00     0.00  -0.00  -0.00
  10   1     0.09   0.00  -0.05    -0.00  -0.00   0.00     0.00   0.00  -0.00
  11   1    -0.61   0.73   0.12    -0.01   0.01   0.00     0.00  -0.00  -0.00
  12   1     0.03  -0.04   0.03    -0.00   0.00  -0.01    -0.00  -0.00   0.00
  13   1     0.01  -0.00   0.00    -0.83   0.33  -0.27     0.22  -0.09   0.07
  14   1    -0.00  -0.00  -0.00     0.01  -0.25  -0.03     0.04  -0.92  -0.13
  15   1    -0.01   0.01   0.01     0.00  -0.00  -0.00     0.01  -0.01  -0.00
  16   1    -0.00  -0.00  -0.00    -0.00  -0.00  -0.00    -0.00   0.00  -0.00
  17   1     0.00   0.00  -0.00     0.00  -0.00   0.00     0.00  -0.01   0.01
