      -----------------------------------------------------------      
     |                   =====================                   |     
     |                           x T B                           |     
     |                   =====================                   |     
     |                         S. Grimme                         |     
     |          Mulliken Center for Theoretical Chemistry        |     
     |                    University of Bonn                     |     
      -----------------------------------------------------------      

   * xtb version 6.7.1 (edcfbbe) compiled by 'conda@3ef47c1a292c' on 2024-11-25

   xtb is free software: you can redistribute it and/or modify it under
   the terms of the GNU Lesser General Public License as published by
   the Free Software Foundation, either version 3 of the License, or
   (at your option) any later version.
   
   xtb is distributed in the hope that it will be useful,
   but WITHOUT ANY WARRANTY; without even the implied warranty of
   MERCHANTABILITY or FITNESS FOR A PARTICULAR PURPOSE.  See the
   GNU Lesser General Public License for more details.
   
   Cite this work as:
   * C. Bannwarth, E. Caldeweyher, S. Ehlert, A. Hansen, P. Pracht,
     J. Seibert, S. Spicher, S. Grimme, WIREs Comput. Mol. Sci., 2020, 11,
     e01493. DOI: 10.1002/wcms.1493
   
   for GFN2-xTB:
   * C. Bannwarth, S. Ehlert and S. Grimme., J. Chem. Theory Comput., 2019,
     15, 1652-1671. DOI: 10.1021/acs.jctc.8b01176
   for GFN1-xTB:
   * S. Grimme, C. Bannwarth, P. Shushkov, J. Chem. Theory Comput., 2017,
     13, 1989-2009. DOI: 10.1021/acs.jctc.7b00118
   for GFN0-xTB:
   * P. Pracht, E. Caldeweyher, S. Ehlert, S. Grimme, ChemRxiv, 2019, preprint.
     DOI: 10.26434/chemrxiv.8326202.v1
   for GFN-FF:
   * S. Spicher and S. Grimme, Angew. Chem. Int. Ed., 2020, 59, 15665-15673.
     DOI: 10.1002/anie.202004239
   
   for ALPB and GBSA implicit solvation:
   * S. Ehlert, M. Stahn, S. Spicher, S. Grimme, J. Chem. Theory Comput.,
     2021, 17, 4250-4261. DOI: 10.1021/acs.jctc.1c00471
   
   for ddCOSMO and CPCM-X implicit solvation:
   * M. Stahn, S. Ehlert, S. Grimme, J. Phys. Chem. A,
     2023, XX, XXXX-XXXX. DOI: 10.1021/acs.jpca.3c04382
   
   for DFT-D4:
   * E. Caldeweyher, C. Bannwarth and S. Grimme, J. Chem. Phys., 2017,
     147, 034112. DOI: 10.1063/1.4993215
   * E. Caldeweyher, S. Ehlert, A. Hansen, H. Neugebauer, S. Spicher,
     C. Bannwarth and S. Grimme, J. Chem. Phys., 2019, 150, 154122.
     DOI: 10.1063/1.5090222
   * E. Caldeweyher, J.-M. Mewes, S. Ehlert and S. Grimme, Phys. Chem. Chem. Phys.
     2020, 22, 8499-8512. DOI: 10.1039/D0CP00502A
   
   for sTDA-xTB:
   * S. Grimme and C. Bannwarth, J. Chem. Phys., 2016, 145, 054103.
     DOI: 10.1063/1.4959605
   
   in the mass-spec context:
   * V. Asgeirsson, C. Bauer and S. Grimme, Chem. Sci., 2017, 8, 4879.
     DOI: 10.1039/c7sc00601b
   * J. Koopman and S. Grimme, ACS Omega 2019, 4, 12, 15120-15133.
     DOI: 10.1021/acsomega.9b02011
   
   for metadynamics refer to:
   * S. Grimme, J. Chem. Theory Comput., 2019, 155, 2847-2862
     DOI: 10.1021/acs.jctc.9b00143
   
   for SPH calculations refer to:
   * S. Spicher and S. Grimme, J. Chem. Theory Comput., 2021, 17, 1701-1714
     DOI: 10.1021/acs.jctc.0c01306
   
   for ONIOM refer to:
   * C. Plett, A. Katbashev, S. Ehlert, S. Grimme, M. Bursch,
     Phys. Chem. Chem. Phys., 2023, 25, 17860-17868. DOI: 10.1039/D3CP02178E
   
   for DIPRO refer to:
   * J. Kohn, N. Gildemeister, S. Grimme, D. Fazzi, A. Hansen,
     J. Chem. Phys., 2023, just accepted.
   
   for PTB refer to:
   * S. Grimme, M. Mueller, A. Hansen, J. Chem. Phys., 2023, 158, 124111.
     DOI: 10.1063/5.0137838
   
   with help from (in alphabetical order)
   P. Atkinson, C. Bannwarth, F. Bohle, G. Brandenburg, E. Caldeweyher
   M. Checinski, S. Dohm, S. Ehlert, S. Ehrlich, I. Gerasimov, C. Hölzer
   A. Katbashev, J. Kohn, J. Koopman, C. Lavigne, S. Lehtola, F. März, M. Müller,
   F. Musil, H. Neugebauer, J. Pisarek, C. Plett, P. Pracht, F. Pultar,
   J. Seibert, P. Shushkov, S. Spicher, M. Stahn, M. Steiner, T. Strunk,
   J. Stückrath, T. Rose, and J. Unsleber
   
 * started run on 2026/08/20 at 02:25:41.273     
   ID    Z sym.   atoms
    1    6 C      1-4, 7
    2    7 N      5, 6
    3    1 H      8-15

           -------------------------------------------------
          |                Calculation Setup                |
           -------------------------------------------------

          program call               : xtb ../../../../A_pyrazole_raw.xyz --opt tight --gfn 2
          coordinate file            : ../../../../A_pyrazole_raw.xyz
          omp threads                :                    16


           -------------------------------------------------
          |                 G F N 2 - x T B                 |
           -------------------------------------------------

        Reference                      10.1021/acs.jctc.8b01176
      * Hamiltonian:
        H0-scaling (s, p, d)           1.850000    2.230000    2.230000
        zeta-weighting                 0.500000
      * Dispersion:
        s8                             2.700000
        a1                             0.520000
        a2                             5.000000
        s9                             5.000000
      * Repulsion:
        kExp                           1.500000    1.000000
        rExp                           1.000000
      * Coulomb:
        alpha                          2.000000
        third order                    shell-resolved
        anisotropic                    true
        a3                             3.000000
        a5                             4.000000
        cn-shift                       1.200000
        cn-exp                         4.000000
        max-rad                        5.000000


          ...................................................
          :                      SETUP                      :
          :.................................................:
          :  # basis functions                  36          :
          :  # atomic orbitals                  36          :
          :  # shells                           22          :
          :  # electrons                        38          :
          :  max. iterations                   250          :
          :  Hamiltonian                  GFN2-xTB          :
          :  restarted?                      false          :
          :  GBSA solvation                  false          :
          :  PC potential                    false          :
          :  electronic temp.          300.0000000     K    :
          :  accuracy                    1.0000000          :
          :  -> integral cutoff          0.2500000E+02      :
          :  -> integral neglect         0.1000000E-07      :
          :  -> SCF convergence          0.1000000E-05 Eh   :
          :  -> wf. convergence          0.1000000E-03 e    :
          :  Broyden damping             0.4000000          :
          :  net charge                          0          :
          :  unpaired electrons                  0          :
          ...................................................

 iter      E             dE          RMSdq      gap      omega  full diag
   1    -20.8445219 -0.208445E+02  0.308E+00    5.23       0.0  T
   2    -20.8922647 -0.477429E-01  0.239E+00    4.81       1.0  T
   3    -20.9012285 -0.896379E-02  0.129E+00    4.87       1.0  T
   4    -20.9012675 -0.389427E-04  0.384E-01    4.82       1.0  T
   5    -20.9021399 -0.872456E-03  0.867E-02    4.79       1.0  T
   6    -20.9021550 -0.150513E-04  0.405E-02    4.77       1.0  T
   7    -20.9021628 -0.782602E-05  0.206E-02    4.78       1.3  T
   8    -20.9021633 -0.461357E-06  0.507E-03    4.78       5.1  T
   9    -20.9021635 -0.226184E-06  0.125E-03    4.78      20.6  T
  10    -20.9021635 -0.492236E-08  0.532E-04    4.78      48.5  T
  11    -20.9021635 -0.192088E-09  0.183E-04    4.78     140.7  T

   *** convergence criteria satisfied after 11 iterations ***

         #    Occupation            Energy/Eh            Energy/eV
      -------------------------------------------------------------
         1        2.0000           -0.6809948             -18.5308
       ...           ...                  ...                  ...
        13        2.0000           -0.4799493             -13.0601
        14        2.0000           -0.4741707             -12.9028
        15        2.0000           -0.4610161             -12.5449
        16        2.0000           -0.4391849             -11.9508
        17        2.0000           -0.3911361             -10.6434
        18        2.0000           -0.3777067             -10.2779
        19        2.0000           -0.3749821             -10.2038 (HOMO)
        20                         -0.1994177              -5.4264 (LUMO)
        21                         -0.1437771              -3.9124
        22                         -0.0116270              -0.3164
        23                          0.0870894               2.3698
        24                          0.1038442               2.8257
       ...                                ...                  ...
        36                          0.6705209              18.2458
      -------------------------------------------------------------
                  HL-Gap            0.1755644 Eh            4.7774 eV
             Fermi-level           -0.2871999 Eh           -7.8151 eV

 SCC (total)                   0 d,  0 h,  0 min,  2.855 sec
 SCC setup                      ...        0 min,  0.032 sec (  1.135%)
 Dispersion                     ...        0 min,  0.132 sec (  4.609%)
 classical contributions        ...        0 min,  0.034 sec (  1.187%)
 integral evaluation            ...        0 min,  0.153 sec (  5.350%)
 iterations                     ...        0 min,  2.085 sec ( 73.025%)
 molecular gradient             ...        0 min,  0.419 sec ( 14.687%)
 printout                       ...        0 min,  0.000 sec (  0.005%)

         :::::::::::::::::::::::::::::::::::::::::::::::::::::
         ::                     SUMMARY                     ::
         :::::::::::::::::::::::::::::::::::::::::::::::::::::
         :: total energy             -20.618524363000 Eh    ::
         :: gradient norm              0.058452440472 Eh/a0 ::
         :: HOMO-LUMO gap              4.777350885926 eV    ::
         ::.................................................::
         :: SCC energy               -20.902139587865 Eh    ::
         :: -> isotropic ES            0.011661353619 Eh    ::
         :: -> anisotropic ES          0.003509249762 Eh    ::
         :: -> anisotropic XC          0.018214448739 Eh    ::
         :: -> dispersion             -0.010062155578 Eh    ::
         :: repulsion energy           0.283615224865 Eh    ::
         :: add. restraining           0.000000000000 Eh    ::
         :: total charge               0.000000000000 e     ::
         :::::::::::::::::::::::::::::::::::::::::::::::::::::

      ----------------------------------------------------------- 
     |                   =====================                   |
     |                        A N C O P T                        |
     |                   =====================                   |
     |               Approximate Normal Coordinate               |
     |                Rational Function Optimizer                |
      ----------------------------------------------------------- 
      ----------------------------------------------------------- 
     |                   =====================                   |
     |                        A N C O P T                        |
     |                   =====================                   |
     |               Approximate Normal Coordinate               |
     |                Rational Function Optimizer                |
      ----------------------------------------------------------- 

          ...................................................
          :                      SETUP                      :
          :.................................................:
          :   optimization level             tight          :
          :   max. optcycles                   200          :
          :   ANC micro-cycles                  20          :
          :   degrees of freedom                39          :
          :.................................................:
          :   RF solver                   davidson          :
          :   write xtbopt.log                true          :
          :   linear?                        false          :
          :   energy convergence         0.1000000E-05 Eh   :
          :   grad. convergence          0.8000000E-03 Eh/α :
          :   maxmium RF displ.          1.0000000          :
          :   Hlow (freq-cutoff)         0.1000000E-01      :
          :   Hmax (freq-cutoff)         5.0000000          :
          :   S6 in model hess.         20.0000000          :
          ...................................................

generating ANC from exact Hessian ...
Using Lindh-Hessian (1995)
 Shifting diagonal of input Hessian by    3.8738355801136290E-003
 Lowest  eigenvalues of input Hessian
    0.000000    0.000000    0.000000    0.000000    0.000000    0.000000
    0.010000    0.012505    0.015188    0.016309    0.018025    0.034415
    0.046620    0.051006    0.059917    0.060597    0.073010    0.089268
 Highest eigenvalues
    1.192970    1.555433    1.842356    1.855580    2.025202    2.078432


........................................................................
.............................. CYCLE    1 ..............................
........................................................................

 iter      E             dE          RMSdq      gap      omega  full diag
   1    -20.9021635 -0.209022E+02  0.434E-05    4.78       0.0  T
   2    -20.9021635 -0.195755E-11  0.243E-05    4.78    1063.9  T
   3    -20.9021635 -0.568434E-13  0.966E-06    4.78    2673.0  T
     SCC iter.                  ...        0 min,  0.535 sec
     gradient                   ...        0 min,  0.419 sec
 * total energy  :   -20.6185244 Eh     change       -0.1582698E-09 Eh
   gradient norm :     0.0584502 Eh/α   predicted     0.0000000E+00 (-100.00%)
   displ. norm   :     0.2636577 α      lambda       -0.8685616E-02
   maximum displ.:     0.1443331 α      in ANC's #6, #8, #10, ...

........................................................................
.............................. CYCLE    2 ..............................
........................................................................

 iter      E             dE          RMSdq      gap      omega  full diag
   1    -20.9242303 -0.209242E+02  0.315E-01    4.86       0.0  T
   2    -20.9243314 -0.101063E-03  0.182E-01    4.90       1.0  T
   3    -20.9243230  0.832807E-05  0.578E-02    4.88       1.0  T
   4    -20.9243461 -0.230505E-04  0.141E-02    4.89       1.8  T
   5    -20.9243471 -0.978833E-06  0.630E-03    4.89       4.1  T
   6    -20.9243471  0.126007E-07  0.194E-03    4.89      13.3  T
   7    -20.9243471 -0.395003E-07  0.541E-04    4.89      47.7  T
   8    -20.9243471 -0.112831E-09  0.213E-04    4.89     121.2  T
     SCC iter.                  ...        0 min,  1.649 sec
     gradient                   ...        0 min,  0.590 sec
 * total energy  :   -20.6240613 Eh     change       -0.5536964E-02 Eh
   gradient norm :     0.0168709 Eh/α   predicted    -0.4644697E-02 ( -16.11%)
   displ. norm   :     0.1537217 α      lambda       -0.1204154E-02
   maximum displ.:     0.1169198 α      in ANC's #6, #10, #3, ...

........................................................................
.............................. CYCLE    3 ..............................
........................................................................

 iter      E             dE          RMSdq      gap      omega  full diag
   1    -20.9305846 -0.209306E+02  0.129E-01    4.92       0.0  T
   2    -20.9305997 -0.150606E-04  0.759E-02    4.94       1.0  T
   3    -20.9305976  0.207963E-05  0.245E-02    4.94       1.1  T
   4    -20.9306021 -0.445679E-05  0.578E-03    4.94       4.5  T
   5    -20.9306022 -0.168936E-06  0.234E-03    4.94      11.0  T
   6    -20.9306022  0.698229E-09  0.768E-04    4.94      33.6  T
   7    -20.9306022 -0.426101E-08  0.200E-04    4.94     129.1  T
     SCC iter.                  ...        0 min,  1.633 sec
     gradient                   ...        0 min,  0.471 sec
 * total energy  :   -20.6247438 Eh     change       -0.6824752E-03 Eh
   gradient norm :     0.0054807 Eh/α   predicted    -0.6163031E-03 (  -9.70%)
   displ. norm   :     0.0711554 α      lambda       -0.1369979E-03
   maximum displ.:     0.0571405 α      in ANC's #6, #3, #1, ...

........................................................................
.............................. CYCLE    4 ..............................
........................................................................

 iter      E             dE          RMSdq      gap      omega  full diag
   1    -20.9301945 -0.209302E+02  0.368E-02    4.94       0.0  T
   2    -20.9301951 -0.592420E-06  0.204E-02    4.94       1.3  T
   3    -20.9301950  0.754090E-07  0.568E-03    4.94       4.5  T
   4    -20.9301952 -0.175435E-06  0.130E-03    4.94      19.9  T
   5    -20.9301952 -0.824472E-08  0.566E-04    4.94      45.6  T
   6    -20.9301952 -0.143441E-09  0.155E-04    4.94     166.9  T
     SCC iter.                  ...        0 min,  1.585 sec
     gradient                   ...        0 min,  0.640 sec
 * total energy  :   -20.6248404 Eh     change       -0.9656375E-04 Eh
   gradient norm :     0.0039160 Eh/α   predicted    -0.6884772E-04 ( -28.70%)
   displ. norm   :     0.0581960 α      lambda       -0.5737696E-04
   maximum displ.:     0.0370822 α      in ANC's #6, #1, #3, ...

........................................................................
.............................. CYCLE    5 ..............................
........................................................................

 iter      E             dE          RMSdq      gap      omega  full diag
   1    -20.9296344 -0.209296E+02  0.268E-02    4.94       0.0  T
   2    -20.9296352 -0.775998E-06  0.145E-02    4.93       1.8  T
   3    -20.9296352  0.481758E-07  0.666E-03    4.94       3.9  T
   4    -20.9296354 -0.243598E-06  0.980E-04    4.94      26.3  T
   5    -20.9296354 -0.715175E-09  0.440E-04    4.94      58.7  T
     SCC iter.                  ...        0 min,  1.338 sec
     gradient                   ...        0 min,  0.466 sec
 * total energy  :   -20.6248720 Eh     change       -0.3167636E-04 Eh
   gradient norm :     0.0010865 Eh/α   predicted    -0.2878619E-04 (  -9.12%)
   displ. norm   :     0.0283951 α      lambda       -0.4666429E-05
   maximum displ.:     0.0215576 α      in ANC's #1, #4, #2, ...

........................................................................
.............................. CYCLE    6 ..............................
........................................................................

 iter      E             dE          RMSdq      gap      omega  full diag
   1    -20.9297447 -0.209297E+02  0.912E-03    4.93       0.0  T
   2    -20.9297448 -0.968829E-07  0.550E-03    4.93       4.7  T
   3    -20.9297448  0.827949E-08  0.244E-03    4.93      10.6  T
   4    -20.9297448 -0.339499E-07  0.273E-04    4.93      94.5  T
   5    -20.9297448 -0.135373E-09  0.142E-04    4.93     181.2  T
     SCC iter.                  ...        0 min,  1.342 sec
     gradient                   ...        0 min,  0.509 sec
 * total energy  :   -20.6248773 Eh     change       -0.5275992E-05 Eh
   gradient norm :     0.0006570 Eh/α   predicted    -0.2332815E-05 ( -55.78%)
   displ. norm   :     0.0522026 α      lambda       -0.6574794E-05
   maximum displ.:     0.0358139 α      in ANC's #1, #4, #2, ...

........................................................................
.............................. CYCLE    7 ..............................
........................................................................

 iter      E             dE          RMSdq      gap      omega  full diag
   1    -20.9298947 -0.209299E+02  0.152E-02    4.93       0.0  T
   2    -20.9298947 -0.350449E-07  0.913E-03    4.93       2.8  T
   3    -20.9298947  0.345226E-07  0.202E-03    4.93      12.8  T
   4    -20.9298947 -0.458953E-07  0.318E-04    4.93      81.3  T
   5    -20.9298947 -0.147814E-09  0.159E-04    4.93     162.1  T
     SCC iter.                  ...        0 min,  1.591 sec
     gradient                   ...        0 min,  0.432 sec
 * total energy  :   -20.6248856 Eh     change       -0.8249317E-05 Eh
   gradient norm :     0.0013973 Eh/α   predicted    -0.3289933E-05 ( -60.12%)
   displ. norm   :     0.1085299 α      lambda       -0.1125833E-04
   maximum displ.:     0.0773202 α      in ANC's #1, #4, #2, ...

........................................................................
.............................. CYCLE    8 ..............................
........................................................................

 iter      E             dE          RMSdq      gap      omega  full diag
   1    -20.9297097 -0.209297E+02  0.293E-02    4.93       0.0  T
   2    -20.9297098 -0.493400E-07  0.176E-02    4.93       1.5  T
   3    -20.9297098  0.859118E-08  0.170E-03    4.93      15.2  T
   4    -20.9297098 -0.262426E-07  0.592E-04    4.93      43.6  T
   5    -20.9297098 -0.674099E-09  0.202E-04    4.93     128.1  T
     SCC iter.                  ...        0 min,  1.228 sec
     gradient                   ...        0 min,  0.342 sec
 * total energy  :   -20.6248985 Eh     change       -0.1293226E-04 Eh
   gradient norm :     0.0016217 Eh/α   predicted    -0.5658030E-05 ( -56.25%)
   displ. norm   :     0.0902962 α      lambda       -0.7590775E-05
   maximum displ.:     0.0667299 α      in ANC's #1, #4, #2, ...

........................................................................
.............................. CYCLE    9 ..............................
........................................................................

 iter      E             dE          RMSdq      gap      omega  full diag
   1    -20.9297261 -0.209297E+02  0.239E-02    4.93       0.0  T
   2    -20.9297261 -0.500743E-07  0.144E-02    4.93       1.8  T
   3    -20.9297261  0.389786E-07  0.201E-03    4.93      12.9  T
   4    -20.9297262 -0.550501E-07  0.369E-04    4.93      70.0  T
   5    -20.9297262 -0.544595E-10  0.115E-04    4.93     224.3  T
     SCC iter.                  ...        0 min,  1.131 sec
     gradient                   ...        0 min,  0.435 sec
 * total energy  :   -20.6249065 Eh     change       -0.7973329E-05 Eh
   gradient norm :     0.0008248 Eh/α   predicted    -0.3807448E-05 ( -52.25%)
   displ. norm   :     0.0522070 α      lambda       -0.3267858E-05
   maximum displ.:     0.0425814 α      in ANC's #1, #4, #5, ...

........................................................................
.............................. CYCLE   10 ..............................
........................................................................

 iter      E             dE          RMSdq      gap      omega  full diag
   1    -20.9298421 -0.209298E+02  0.143E-02    4.94       0.0  T
   2    -20.9298422 -0.283067E-07  0.855E-03    4.94       3.0  T
   3    -20.9298421  0.231461E-07  0.169E-03    4.94      15.3  T
   4    -20.9298422 -0.323897E-07  0.324E-04    4.94      79.6  T
   5    -20.9298422 -0.777476E-10  0.153E-04    4.94     168.7  T
     SCC iter.                  ...        0 min,  1.153 sec
     gradient                   ...        0 min,  0.488 sec
 * total energy  :   -20.6249094 Eh     change       -0.2898069E-05 Eh
   gradient norm :     0.0004098 Eh/α   predicted    -0.1636306E-05 ( -43.54%)
   displ. norm   :     0.0276672 α      lambda       -0.1373162E-05
   maximum displ.:     0.0231079 α      in ANC's #1, #4, #5, ...

........................................................................
.............................. CYCLE   11 ..............................
........................................................................

 iter      E             dE          RMSdq      gap      omega  full diag
   1    -20.9298396 -0.209298E+02  0.762E-03    4.94       0.0  T
   2    -20.9298396 -0.607292E-08  0.454E-03    4.94       5.7  T
   3    -20.9298396  0.596076E-08  0.915E-04    4.94      28.2  T
   4    -20.9298397 -0.845918E-08  0.182E-04    4.94     142.2  T
     SCC iter.                  ...        0 min,  1.073 sec
     gradient                   ...        0 min,  0.384 sec
 * total energy  :   -20.6249106 Eh     change       -0.1259223E-05 Eh
   gradient norm :     0.0003545 Eh/α   predicted    -0.6861979E-06 ( -45.51%)
   displ. norm   :     0.0131651 α      lambda       -0.3576164E-06
   maximum displ.:     0.0118142 α      in ANC's #1, #4, #3, ...

........................................................................
.............................. CYCLE   12 ..............................
........................................................................

 iter      E             dE          RMSdq      gap      omega  full diag
   1    -20.9298475 -0.209298E+02  0.364E-03    4.94       0.0  T
   2    -20.9298475 -0.193273E-08  0.218E-03    4.94      11.8  T
   3    -20.9298475  0.120652E-08  0.365E-04    4.94      70.6  T
   4    -20.9298475 -0.173237E-08  0.805E-05    4.94     320.9  T
     SCC iter.                  ...        0 min,  0.809 sec
     gradient                   ...        0 min,  0.524 sec
 * total energy  :   -20.6249110 Eh     change       -0.4169375E-06 Eh
   gradient norm :     0.0002185 Eh/α   predicted    -0.1777605E-06 ( -57.37%)
   displ. norm   :     0.0100529 α      lambda       -0.2180614E-06
   maximum displ.:     0.0089557 α      in ANC's #1, #4, #2, ...

   *** GEOMETRY OPTIMIZATION CONVERGED AFTER 12 ITERATIONS ***

------------------------------------------------------------------------
 total energy gain   :        -0.0063867 Eh       -4.0077 kcal/mol
 total RMSD          :         0.1703061 a0        0.0901 Å
 total power (kW/mol):        -1.3973532 (step)   -0.6420 (real)
------------------------------------------------------------------------

 ANCopt (total)                0 d,  0 h,  0 min, 26.118 sec
 optimizer setup                ...        0 min,  0.000 sec (  0.001%)
 model hessian                  ...        0 min,  0.003 sec (  0.010%)
 ANC generation                 ...        0 min,  0.000 sec (  0.001%)
 coordinate transformation      ...        0 min,  0.000 sec (  0.001%)
 single point calculation       ...        0 min, 25.510 sec ( 97.673%)
 optimization log               ...        0 min,  0.001 sec (  0.004%)
 hessian update                 ...        0 min,  0.601 sec (  2.300%)
 rational function              ...        0 min,  0.002 sec (  0.007%)

================
 final structure:
================
15
 xtb: 6.7.1 (edcfbbe)
C           -0.99507102417968       -1.46282566424279        0.28494533377382
C            0.18231773448636       -0.58173006026506        0.07991983830914
C            1.53383447718569       -0.85769521125233        0.04516672601383
C            2.14649981889190        0.38002771950591       -0.18393437313477
N            1.24756437154059        1.33973925094722       -0.28197068759656
N            0.06392069208062        0.75133386875430       -0.12200912677673
C           -1.14283180163104        1.52145364189929       -0.17008314319391
H           -0.66615688840979       -2.48814991419383        0.42844358286809
H           -1.66063910274492       -1.42697048074386       -0.57819375485039
H           -1.56359940026551       -1.15206563667261        1.16212466565707
H            2.00623807236582       -1.81085702688054        0.16726905160322
H            3.19029474438786        0.60378278899722       -0.27934016730849
H           -1.68157096638824        1.45915050577235        0.77833112043006
H           -0.86416723686203        2.55576499894937       -0.35959715582454
H           -1.79663549045760        1.16904121942537       -0.97107190996982

 Bond Distances (Angstroems)
 ---------------------------
C1-C2=1.4848         C1-H8=1.0863         C1-H9=1.0905         C1-H10=1.0905        C2-C1=1.4848         C2-C3=1.3798         
C2-N6=1.3535         C3-C2=1.3798         C3-C4=1.3999         C3-H11=1.0708        C4-C3=1.3999         C4-N5=1.3186         
C4-H12=1.0718        N5-C4=1.3186         N5-N6=1.3315         N6-C2=1.3535         N6-N5=1.3315         N6-C7=1.4324         
C7-N6=1.4324         C7-H13=1.0925        C7-H14=1.0878        C7-H15=1.0924        H8-C1=1.0863         H9-C1=1.0905         
H10-C1=1.0905        H11-C3=1.0708        H12-C4=1.0718        H13-C7=1.0925        H14-C7=1.0878        H15-C7=1.0924        
 C  H  Rav=1.0853 sigma=0.0084  Rmin=1.0708  Rmax=1.0925     8
 C  C  Rav=1.4215 sigma=0.0455  Rmin=1.3798  Rmax=1.4848     3
 N  C  Rav=1.3681 sigma=0.0476  Rmin=1.3186  Rmax=1.4324     3
 N  N  Rav=1.3315 sigma=0.0000  Rmin=1.3315  Rmax=1.3315     1

 selected bond angles (degree)
 --------------------
H8-C1-C2=109.77                H9-C1-C2=110.80                H9-C1-H8=108.69                H10-C1-C2=110.82               
H10-C1-H8=108.70               H10-C1-H9=108.00               C3-C2-C1=131.41                N6-C2-C1=122.39                
N6-C2-C3=106.20                C4-C3-C2=104.83                H11-C3-C2=127.39               H11-C3-C4=127.78               
N5-C4-C3=110.93                H12-C4-C3=128.71               H12-C4-N5=120.36               N6-N5-C4=105.99                
N5-N6-C2=112.05                C7-N6-C2=127.46                C7-N6-N5=120.49                H13-C7-N6=110.83               
H14-C7-N6=107.53               H14-C7-H13=109.38              H15-C7-N6=110.82               H15-C7-H13=108.84              
H15-C7-H14=109.41              

 selected dihedral angles (degree)
 ---------------------------------
C3-C2-C1-H8=  0.15            C3-C2-C1-H9=240.10            C3-C2-C1-H10=120.22           N6-C2-C1-H8=180.10            
N6-C2-C1-H9= 60.05            N6-C2-C1-H10=300.17           C4-C3-C2-C1=179.96            C4-C3-C2-N6=  0.00            
H11-C3-C2-C1=359.95           H11-C3-C2-N6=179.99           N5-C4-C3-C2=  0.00            N5-C4-C3-H11=180.03           
H12-C4-C3-C2=180.01           H12-C4-C3-H11=  0.00          N6-N5-C4-C3=359.97            N6-N5-C4-H12=179.98           
N5-N6-C2-C1=180.02            N5-N6-C2-C3=  0.00            C7-N6-C2-C1=  0.18            C7-N6-C2-C3=180.14            
C2-N6-N5-C4=  0.03            C7-N6-N5-C4=179.88            H13-C7-N6-C2= 61.07           H13-C7-N6-N5=241.25           
H14-C7-N6-C2=180.57           H14-C7-N6-N5=  0.75           H15-C7-N6-C2=300.11           H15-C7-N6-N5=120.29           
           -------------------------------------------------
          |                Final Singlepoint                |
           -------------------------------------------------

          ...................................................
          :                      SETUP                      :
          :.................................................:
          :  # basis functions                  36          :
          :  # atomic orbitals                  36          :
          :  # shells                           22          :
          :  # electrons                        38          :
          :  max. iterations                   250          :
          :  Hamiltonian                  GFN2-xTB          :
          :  restarted?                      false          :
          :  GBSA solvation                  false          :
          :  PC potential                    false          :
          :  electronic temp.          300.0000000     K    :
          :  accuracy                    1.0000000          :
          :  -> integral cutoff          0.2500000E+02      :
          :  -> integral neglect         0.1000000E-07      :
          :  -> SCF convergence          0.1000000E-05 Eh   :
          :  -> wf. convergence          0.1000000E-03 e    :
          :  Broyden damping             0.4000000          :
          :  net charge                          0          :
          :  unpaired electrons                  0          :
          ...................................................

 iter      E             dE          RMSdq      gap      omega  full diag
   1    -20.9298475 -0.209298E+02  0.414E-05    4.94       0.0  T
   2    -20.9298475 -0.418865E-11  0.238E-05    4.94    1085.5  T
   3    -20.9298475 -0.246203E-11  0.136E-05    4.94    1903.2  T

   *** convergence criteria satisfied after 3 iterations ***

         #    Occupation            Energy/Eh            Energy/eV
      -------------------------------------------------------------
         1        2.0000           -0.6804084             -18.5149
       ...           ...                  ...                  ...
        13        2.0000           -0.4801929             -13.0667
        14        2.0000           -0.4722275             -12.8500
        15        2.0000           -0.4600426             -12.5184
        16        2.0000           -0.4444241             -12.0934
        17        2.0000           -0.3870460             -10.5321
        18        2.0000           -0.3821355             -10.3984
        19        2.0000           -0.3793039             -10.3214 (HOMO)
        20                         -0.1979084              -5.3854 (LUMO)
        21                         -0.1448896              -3.9426
        22                          0.0133992               0.3646
        23                          0.1084687               2.9516
        24                          0.1198933               3.2625
       ...                                ...                  ...
        36                          0.6771216              18.4254
      -------------------------------------------------------------
                  HL-Gap            0.1813955 Eh            4.9360 eV
             Fermi-level           -0.2886062 Eh           -7.8534 eV

 SCC (total)                   0 d,  0 h,  0 min,  2.044 sec
 SCC setup                      ...        0 min,  0.038 sec (  1.862%)
 Dispersion                     ...        0 min,  0.143 sec (  6.996%)
 classical contributions        ...        0 min,  0.059 sec (  2.899%)
 integral evaluation            ...        0 min,  0.193 sec (  9.432%)
 iterations                     ...        0 min,  1.173 sec ( 57.377%)
 molecular gradient             ...        0 min,  0.438 sec ( 21.426%)
 printout                       ...        0 min,  0.000 sec (  0.006%)

         :::::::::::::::::::::::::::::::::::::::::::::::::::::
         ::                     SUMMARY                     ::
         :::::::::::::::::::::::::::::::::::::::::::::::::::::
         :: total energy             -20.624911047642 Eh    ::
         :: gradient norm              0.000218558509 Eh/a0 ::
         :: HOMO-LUMO gap              4.936022816952 eV    ::
         ::.................................................::
         :: SCC energy               -20.929824078667 Eh    ::
         :: -> isotropic ES            0.011360046479 Eh    ::
         :: -> anisotropic ES          0.002607950951 Eh    ::
         :: -> anisotropic XC          0.016841533072 Eh    ::
         :: -> dispersion             -0.010115787488 Eh    ::
         :: repulsion energy           0.304913031025 Eh    ::
         :: add. restraining           0.000000000000 Eh    ::
         :: total charge              -0.000000000000 e     ::
         :::::::::::::::::::::::::::::::::::::::::::::::::::::

           -------------------------------------------------
          |                Property Printout                |
           -------------------------------------------------

    * Orbital Energies and Occupations

         #    Occupation            Energy/Eh            Energy/eV
      -------------------------------------------------------------
         1        2.0000           -0.6804084             -18.5149
       ...           ...                  ...                  ...
         7        2.0000           -0.5507763             -14.9874
         8        2.0000           -0.5503027             -14.9745
         9        2.0000           -0.5249417             -14.2844
        10        2.0000           -0.4961082             -13.4998
        11        2.0000           -0.4957415             -13.4898
        12        2.0000           -0.4860323             -13.2256
        13        2.0000           -0.4801929             -13.0667
        14        2.0000           -0.4722275             -12.8500
        15        2.0000           -0.4600426             -12.5184
        16        2.0000           -0.4444241             -12.0934
        17        2.0000           -0.3870460             -10.5321
        18        2.0000           -0.3821355             -10.3984
        19        2.0000           -0.3793039             -10.3214 (HOMO)
        20                         -0.1979084              -5.3854 (LUMO)
        21                         -0.1448896              -3.9426
        22                          0.0133992               0.3646
        23                          0.1084687               2.9516
        24                          0.1198933               3.2625
        25                          0.1367089               3.7200
        26                          0.1603920               4.3645
        27                          0.1804131               4.9093
        28                          0.1808935               4.9224
        29                          0.1944558               5.2914
        30                          0.2252400               6.1291
       ...                                ...                  ...
        36                          0.6771216              18.4254
      -------------------------------------------------------------
                  HL-Gap            0.1813955 Eh            4.9360 eV
             Fermi-level           -0.2886062 Eh           -7.8534 eV

     #   Z          covCN         q      C6AA      α(0)
     1   6 C        3.754    -0.108    22.625     6.783
     2   6 C        3.068     0.024    27.400     8.583
     3   6 C        3.025    -0.087    30.148     9.006
     4   6 C        3.117     0.023    27.338     8.564
     5   7 N        2.004    -0.246    27.204     7.736
     6   7 N        3.049     0.076    19.922     6.629
     7   6 C        3.692    -0.059    21.834     6.686
     8   1 H        0.925     0.051     2.311     2.377
     9   1 H        0.924     0.045     2.385     2.415
    10   1 H        0.924     0.045     2.384     2.415
    11   1 H        0.926     0.019     2.751     2.594
    12   1 H        0.926     0.024     2.669     2.555
    13   1 H        0.924     0.056     2.246     2.344
    14   1 H        0.925     0.082     1.958     2.188
    15   1 H        0.924     0.056     2.245     2.343

 Mol. C6AA /au·bohr⁶  :       2236.491235
 Mol. C8AA /au·bohr⁸  :      50360.319266
 Mol. α(0) /au        :         73.216964


Wiberg/Mayer (AO) data.
largest (>0.10) Wiberg bond orders for each atom

 ---------------------------------------------------------------------------
     #   Z sym  total        # sym  WBO       # sym  WBO       # sym  WBO
 ---------------------------------------------------------------------------
     1   6 C    3.997 --     2 C    1.030     8 H    0.984    10 H    0.971
                             9 H    0.971
     2   6 C    3.959 --     3 C    1.475     6 N    1.257     1 C    1.030
                             5 N    0.147
     3   6 C    3.976 --     2 C    1.475     4 C    1.370    11 H    0.975
     4   6 C    3.979 --     5 N    1.508     3 C    1.370    12 H    0.970
     5   7 N    2.961 --     4 C    1.508     6 N    1.199     2 C    0.147
     6   7 N    3.663 --     2 C    1.257     5 N    1.199     7 C    1.007
     7   6 C    3.972 --     6 N    1.007    14 H    0.979    15 H    0.973
                            13 H    0.973
     8   1 H    0.997 --     1 C    0.984
     9   1 H    0.998 --     1 C    0.971
    10   1 H    0.998 --     1 C    0.971
    11   1 H    1.000 --     3 C    0.975
    12   1 H    0.999 --     4 C    0.970
    13   1 H    0.997 --     7 C    0.973
    14   1 H    0.993 --     7 C    0.979
    15   1 H    0.997 --     7 C    0.973
 ---------------------------------------------------------------------------
Note: The following floating-point exceptions are signalling: IEEE_DENORMAL
normal termination of xtb

Topologies differ in total number of bonds
Writing topology from bond orders to xtbtopo.mol

molecular dipole:
                 x           y           z       tot (Debye)
 q only:       -1.013      -0.075       0.070
   full:       -1.107      -0.445       0.134       3.051
molecular quadrupole (traceless):
                xx          xy          yy          xz          yz          zz
 q only:        0.041      -2.774       0.760       0.386      -0.083      -0.801
  q+dip:        1.264      -4.092      -0.377       0.520       0.167      -0.887
   full:        1.040      -4.118      -1.001       0.588       0.405      -0.039

           -------------------------------------------------
          |                Geometry Summary                 |
           -------------------------------------------------

      molecular mass/u    :       96.1306119
   center of mass at/Å    :        0.3747479       0.1682097      -0.0482149
  moments of inertia/u·Å² :        0.1264938E+03   0.1519491E+03   0.2721216E+03
rotational constants/cm⁻¹ :        0.1332684E+00   0.1109426E+00   0.6194890E-01

 * 15 selected distances

     #   Z          #   Z                                           value/Å
     1   6 C        2   6 C                                       1.4847928 (max)
     2   6 C        3   6 C                                       1.3798414
     3   6 C        4   6 C                                       1.3999302
     4   6 C        5   7 N                                       1.3186139
     2   6 C        6   7 N                                       1.3534596
     5   7 N        6   7 N                                       1.3314734
     6   7 N        7   6 C                                       1.4323573
     1   6 C        8   1 H                                       1.0863086
     1   6 C        9   1 H                                       1.0905392
     1   6 C       10   1 H                                       1.0905229
     3   6 C       11   1 H                                       1.0707903 (min)
     4   6 C       12   1 H                                       1.0717633
     7   6 C       13   1 H                                       1.0925252
     7   6 C       14   1 H                                       1.0878280
     7   6 C       15   1 H                                       1.0923539

 * 4 distinct bonds (by element types)

   Z      Z             #   av. dist./Å        max./Å        min./Å
   1 H    6 C           8     1.0853289     1.0925252     1.0707903
   6 C    6 C           3     1.4215215     1.4847928     1.3798414
   6 C    7 N           3     1.3681436     1.4323573     1.3186139
   7 N    7 N           1     1.3314734     1.3314734     1.3314734


optimized geometry written to: xtbopt.xyz


           -------------------------------------------------
          | TOTAL ENERGY              -20.624911047642 Eh   |
          | GRADIENT NORM               0.000218558509 Eh/α |
          | HOMO-LUMO GAP               4.936022816952 eV   |
           -------------------------------------------------

------------------------------------------------------------------------
 * finished run on 2026/08/20 at 02:26:12.731     
------------------------------------------------------------------------
 total:
 * wall-time:     0 d,  0 h,  0 min, 31.458 sec
 *  cpu-time:     0 d,  0 h,  1 min, 35.583 sec
 * ratio c/w:     3.038 speedup
 SCF:
 * wall-time:     0 d,  0 h,  0 min,  2.855 sec
 *  cpu-time:     0 d,  0 h,  0 min, 11.096 sec
 * ratio c/w:     3.886 speedup
 ANC optimizer:
 * wall-time:     0 d,  0 h,  0 min, 28.164 sec
 *  cpu-time:     0 d,  0 h,  1 min, 23.409 sec
 * ratio c/w:     2.961 speedup

