15
 energy: -20.624911047642 gnorm: 0.000218558509 xtb: 6.7.1 (edcfbbe)
C           -0.99507102417968       -1.46282566424279        0.28494533377382
C            0.18231773448636       -0.58173006026506        0.07991983830914
C            1.53383447718569       -0.85769521125233        0.04516672601383
C            2.14649981889190        0.38002771950591       -0.18393437313477
N            1.24756437154059        1.33973925094722       -0.28197068759656
N            0.06392069208062        0.75133386875430       -0.12200912677673
C           -1.14283180163104        1.52145364189929       -0.17008314319391
H           -0.66615688840979       -2.48814991419383        0.42844358286809
H           -1.66063910274492       -1.42697048074386       -0.57819375485039
H           -1.56359940026551       -1.15206563667261        1.16212466565707
H            2.00623807236582       -1.81085702688054        0.16726905160322
H            3.19029474438786        0.60378278899722       -0.27934016730849
H           -1.68157096638824        1.45915050577235        0.77833112043006
H           -0.86416723686203        2.55576499894937       -0.35959715582454
H           -1.79663549045760        1.16904121942537       -0.97107190996982
