15
 energy: -20.623670406365 gnorm: 0.001185280755 xtb: 6.7.1 (edcfbbe)
C           -2.46332511176276        0.64765598168038       -0.02044294086051
C           -1.08318879301290        0.09386044442476       -0.01568179230158
N           -0.01571670106601        0.87499163289641       -0.02168136474513
N            1.04329103421924        0.07006999697997       -0.01581193692368
C            0.67991842135784       -1.22780188536334       -0.00749973808098
C           -0.69400678706881       -1.25806587950605       -0.00658907104622
C            2.37387763733047        0.60393084627464       -0.02767396870175
H           -2.41898166019810        1.73266569892650       -0.00009789705371
H           -3.01740745225277        0.29439119304323        0.84817158794797
H           -2.99678670076648        0.32840233290084       -0.91505454376484
H            1.40812225380430       -2.01389864049995       -0.00170158179681
H           -1.33076893284413       -2.11883624259065        0.00051347343035
H            2.29533714184157        1.68845489344742        0.00608646726707
H            2.90185031744464        0.30790226932271       -0.93718360425056
H            2.93785533297389        0.25318735806314        0.83904691088039
