17
Properties=species:S:1:pos:R:3:forces:R:3:charge:R:1 energy:=T -17.451140243828=T gnorm:=T 0.001397652759=T xtb:=T 6.7.1=T (edcfbbe)=T energy=-717.518313707574 free_energy=-717.518313707574 dipole="-0.40658680589775703 0.23166679596249576 -0.005162694222801126" pbc="F F F"
C       -2.01918480      -0.05880763       0.00384640      -0.00845230       0.00153225      -0.00818146      -0.11196300
C       -0.59745899       0.36882374       0.00379332      -0.02474005      -0.02709359       0.00365452       0.03872901
C       -0.00928562       1.61354980       0.00347134       0.00953799      -0.01652975       0.00163793      -0.08142938
C        1.37104528       1.36039169       0.00916250       0.02087553       0.01267759      -0.00009663       0.02751987
N        1.61595274       0.06712240       0.01278503       0.03306334      -0.01914411      -0.00222398      -0.22581979
N        0.42132294      -0.52122771       0.00975274       0.00447653       0.00643042      -0.00312336      -0.00691987
H       -2.66716869       0.81278827      -0.01633861      -0.00170803      -0.01612233       0.00011662       0.05532426
H       -2.24258718      -0.63988543       0.89884586      -0.02219539      -0.00104978       0.00648043       0.04661787
H       -2.23406097      -0.67489908      -0.86990582      -0.01598374       0.00823381      -0.00008207       0.04572761
H       -0.50623679       2.56093904       0.00018626       0.02472036       0.03325312      -0.00117726       0.02416384
H        2.18383351       2.05831119       0.01085561      -0.01920482       0.03529967      -0.00035807       0.02974242
H        0.35602356      -1.52577022       0.00993291      -0.00761363      -0.01733588       0.00311266       0.15737581
C       -0.94784554      -4.22017261      -0.03203633       0.00159593      -0.00160165       0.00316911      -0.15273561
N       -1.35428259      -5.40661998      -0.02043427       0.00165189       0.04025922      -0.00144311       0.21470621
N       -1.71899591      -6.47419182      -0.01009173      -0.01387921      -0.02954519       0.00056414      -0.20258832
H       -1.66002303      -3.41821068      -0.05081375       0.01557506      -0.01444977      -0.00010131       0.07040491
H        0.10792503      -4.03133977      -0.02280071       0.00228053       0.00518597      -0.00194816       0.07114418
