17
 energy: -26.366956424258 gnorm: 0.001094978701 xtb: 6.7.1 (edcfbbe)
C            2.38261920431800        0.10299427560195       -0.00227307236842
C            0.90134247141880        0.23885190231201       -0.00076258991672
C            0.14804569953699        1.42993938521536       -0.00249488939127
C           -1.16338727462116        1.02380412983534       -0.00039411325422
N           -1.14306945716368       -0.32452966091414        0.00250117121688
N            0.09697701470707       -0.81117770732436        0.00230678975954
H            2.84794545038452        1.08518003891079        0.00409826896787
H            2.71015327349378       -0.44196990786932       -0.88579723236876
H            2.71084636126167       -0.45419675367537        0.87324641060395
H            0.52231404078706        2.43297420254977       -0.00484391341172
H           -2.08049080700961        1.57773044523467       -0.00059597700435
H           -1.92635314704299       -0.95704762013224        0.00501589642084
C           -3.80044877819978       -3.04458285557598        0.00666127229139
N           -4.60186950527817       -4.00957505556356        0.00554865687119
N           -5.32430361254624       -4.87691715349076        0.00452390153495
H           -2.74514255495764       -3.23825089815857       -0.00053000973863
H           -4.19041274908845       -2.04517896695560       -0.00079556021246
