17
Properties=species:S:1:pos:R:3 energy:=T -17.449565472625=T gnorm:=T 0.001224294001=T xtb:=T 6.7.1=T (edcfbbe)=T pbc="F F F"
C        2.21651017       0.03051857      -0.00206047
C        0.72959198       0.06723620      -0.00086256
C       -0.10528548       1.20132021      -0.00112608
C       -1.38503570       0.70340293       0.00011911
N       -1.26986893      -0.63964852       0.00094410
N        0.00097599      -1.03653481       0.00031650
H        2.61674713       1.04092607       0.00261345
H        2.57894446      -0.49376919      -0.88432463
H        2.58015077      -0.50270568       0.87427415
H        0.19626824       2.22853816      -0.00197976
H       -2.33949403       1.18952284       0.00047074
H       -2.10899764      -1.42600815       0.00217902
C       -2.98461022      -2.24655734       0.00346763
N       -4.00615822      -3.20386472       0.00497102
N       -4.83799016      -3.98338644       0.00619520
H       -2.00786168      -2.73093261       0.00312838
H       -3.40461509      -1.24044954       0.00298754
