17
Properties=species:S:1:pos:R:3 energy:=T -20.623670406365=T gnorm:=T 0.001185280755=T xtb:=T 6.7.1=T (edcfbbe)=T pbc="F F F"
C       -2.46332511       0.64765598      -0.02044294
C       -1.08318879       0.09386044      -0.01568179
N       -0.01571670       0.87499163      -0.02168136
N        1.04329103       0.07007000      -0.01581194
C        0.67991842      -1.22780189      -0.00749974
C       -0.69400679      -1.25806588      -0.00658907
C        2.37387764       0.60393085      -0.02767397
H       -2.41898166       1.73266570      -0.00009790
H       -3.01740745       0.29439119       0.84817159
H       -2.99678670       0.32840233      -0.91505454
H        1.40812225      -2.01389864      -0.00170158
H       -1.33076893      -2.11883624       0.00051347
H        2.29533714       1.68845489       0.00608647
H        2.90185032       0.30790227      -0.93718360
H        2.93785533       0.25318736       0.83904691
N        5.57638969       1.88884969      -0.05622401
N        6.59579182       2.29785643      -0.06531186
