17
Properties=species:S:1:pos:R:3 energy:=T -20.624907025081=T gnorm:=T 0.000918012018=T xtb:=T 6.7.1=T (edcfbbe)=T pbc="F F F"
C        1.93073059      -1.09920513       0.00015965
C        0.51460271      -0.65410976       0.00568377
C       -0.66555933      -1.36923789       0.00520315
C       -1.67315759      -0.39822364       0.01005940
N       -1.15751091       0.81554194       0.01301049
N        0.16395091       0.65279597       0.00952501
C        1.03738784       1.78856347       0.01708633
H        1.97406695      -2.18459296       0.01116568
H        2.46063473      -0.71901704       0.87407722
H        2.44721838      -0.73829795      -0.89003531
H       -0.78100779      -2.43376382       0.00213303
H       -2.73616522      -0.53336486       0.01114622
H        0.41481852       2.68000648      -0.00905181
H        1.69453175       1.77778104      -0.85497307
H        1.65046846       1.80107414       0.92120025
N        3.14099049       4.52396823       0.03529715
N        3.81059517       5.39468391       0.04109390
