17
Properties=species:S:1:pos:R:3:forces:R:3:charge:R:1 energy:=T -17.449565472625=T gnorm:=T 0.001224294001=T xtb:=T 6.7.1=T (edcfbbe)=T energy=-717.492545053362 free_energy=-717.492545053362 dipole="0.00992492570946897 0.5874217192028957 -0.020325348906652496" pbc="F F F"
C        2.36502016      -0.00047456      -0.01342636      -0.00211650      -0.00412605       0.00741367      -0.11052821
C        0.90647257       0.28922338       0.01977584       0.01635617       0.00558872       0.00365745       0.07384660
C        0.28005337       1.54830170      -0.06815635       0.00950916       0.01057535      -0.00282025      -0.07922368
C       -1.06507558       1.28477892       0.00135087      -0.00429704       0.01029854      -0.00062718      -0.00793934
N       -1.18352739      -0.05275672       0.12074857       0.00376505      -0.00261506       0.00146920       0.00149343
N       -0.00080894      -0.66567655       0.13441331      -0.01231045      -0.02088783       0.00325805      -0.23928360
H        2.93172446       0.91969569       0.10444476      -0.00241282      -0.00870148       0.00319002       0.04202672
H        2.63585542      -0.46093645      -0.96276989       0.00038599       0.00144750      -0.00280323       0.05104190
H        2.62988119      -0.69391884       0.78191028      -0.00826228       0.00367714      -0.01122068       0.05331152
H        0.75568062       2.50201336      -0.16527293       0.00655113       0.01151473      -0.00467283       0.02469406
H       -1.91907866       1.93118521      -0.02430509       0.00330839      -0.00027007       0.00011266       0.03040757
H       -2.02669211      -0.59550149       0.20461218      -0.02180553      -0.01041181       0.00756788       0.15837306
C       -3.65351968      -2.99888708      -0.02407557      -0.00344489      -0.02566711       0.00118203      -0.15266111
N       -4.41060327      -3.99865794      -0.01629497       0.01992881       0.02068937       0.00088843       0.21439936
N       -5.09751063      -4.89438809      -0.00420860       0.01038952      -0.00415696       0.00209033      -0.20629379
H       -2.59029930      -3.13500385       0.02292363      -0.00930918       0.00235754      -0.00204010       0.08070343
H       -4.08830063      -2.02138870      -0.10035634      -0.00623553       0.01068748      -0.00664546       0.06563208
