17
Properties=species:S:1:pos:R:3 energy:=T -17.451140243828=T gnorm:=T 0.001397652759=T xtb:=T 6.7.1=T (edcfbbe)=T pbc="F F F"
C       -2.26610503      -0.07507680      -0.00458173
C       -0.78899414       0.07747599      -0.00081826
C        0.02150525       1.19158108       0.00369555
C        1.33075610       0.68890148       0.00385954
N        1.33225827      -0.62779916       0.00096401
N        0.04827881      -0.98501451      -0.00133975
H       -2.73869176       0.90258038       0.01709544
H       -2.59677221      -0.64268642       0.86523608
H       -2.59663176      -0.60260793      -0.89949587
H       -0.28351361       2.21760706       0.00603111
H        2.25496843       1.23070018       0.00665705
H       -0.23124610      -2.10052045      -0.00484861
C       -0.52292427      -3.26452666      -0.00851004
N       -0.86321546      -4.62253389      -0.01278170
N       -1.14030972      -5.72833979      -0.01626006
H       -1.42089438      -2.64621727      -0.00787911
H        0.56050455      -3.14272210      -0.00681292
