      -----------------------------------------------------------      
     |                   =====================                   |     
     |                           x T B                           |     
     |                   =====================                   |     
     |                         S. Grimme                         |     
     |          Mulliken Center for Theoretical Chemistry        |     
     |                    University of Bonn                     |     
      -----------------------------------------------------------      

   * xtb version 6.7.1 (edcfbbe) compiled by 'conda@3ef47c1a292c' on 2024-11-25

   xtb is free software: you can redistribute it and/or modify it under
   the terms of the GNU Lesser General Public License as published by
   the Free Software Foundation, either version 3 of the License, or
   (at your option) any later version.
   
   xtb is distributed in the hope that it will be useful,
   but WITHOUT ANY WARRANTY; without even the implied warranty of
   MERCHANTABILITY or FITNESS FOR A PARTICULAR PURPOSE.  See the
   GNU Lesser General Public License for more details.
   
   Cite this work as:
   * C. Bannwarth, E. Caldeweyher, S. Ehlert, A. Hansen, P. Pracht,
     J. Seibert, S. Spicher, S. Grimme, WIREs Comput. Mol. Sci., 2020, 11,
     e01493. DOI: 10.1002/wcms.1493
   
   for GFN2-xTB:
   * C. Bannwarth, S. Ehlert and S. Grimme., J. Chem. Theory Comput., 2019,
     15, 1652-1671. DOI: 10.1021/acs.jctc.8b01176
   for GFN1-xTB:
   * S. Grimme, C. Bannwarth, P. Shushkov, J. Chem. Theory Comput., 2017,
     13, 1989-2009. DOI: 10.1021/acs.jctc.7b00118
   for GFN0-xTB:
   * P. Pracht, E. Caldeweyher, S. Ehlert, S. Grimme, ChemRxiv, 2019, preprint.
     DOI: 10.26434/chemrxiv.8326202.v1
   for GFN-FF:
   * S. Spicher and S. Grimme, Angew. Chem. Int. Ed., 2020, 59, 15665-15673.
     DOI: 10.1002/anie.202004239
   
   for ALPB and GBSA implicit solvation:
   * S. Ehlert, M. Stahn, S. Spicher, S. Grimme, J. Chem. Theory Comput.,
     2021, 17, 4250-4261. DOI: 10.1021/acs.jctc.1c00471
   
   for ddCOSMO and CPCM-X implicit solvation:
   * M. Stahn, S. Ehlert, S. Grimme, J. Phys. Chem. A,
     2023, XX, XXXX-XXXX. DOI: 10.1021/acs.jpca.3c04382
   
   for DFT-D4:
   * E. Caldeweyher, C. Bannwarth and S. Grimme, J. Chem. Phys., 2017,
     147, 034112. DOI: 10.1063/1.4993215
   * E. Caldeweyher, S. Ehlert, A. Hansen, H. Neugebauer, S. Spicher,
     C. Bannwarth and S. Grimme, J. Chem. Phys., 2019, 150, 154122.
     DOI: 10.1063/1.5090222
   * E. Caldeweyher, J.-M. Mewes, S. Ehlert and S. Grimme, Phys. Chem. Chem. Phys.
     2020, 22, 8499-8512. DOI: 10.1039/D0CP00502A
   
   for sTDA-xTB:
   * S. Grimme and C. Bannwarth, J. Chem. Phys., 2016, 145, 054103.
     DOI: 10.1063/1.4959605
   
   in the mass-spec context:
   * V. Asgeirsson, C. Bauer and S. Grimme, Chem. Sci., 2017, 8, 4879.
     DOI: 10.1039/c7sc00601b
   * J. Koopman and S. Grimme, ACS Omega 2019, 4, 12, 15120-15133.
     DOI: 10.1021/acsomega.9b02011
   
   for metadynamics refer to:
   * S. Grimme, J. Chem. Theory Comput., 2019, 155, 2847-2862
     DOI: 10.1021/acs.jctc.9b00143
   
   for SPH calculations refer to:
   * S. Spicher and S. Grimme, J. Chem. Theory Comput., 2021, 17, 1701-1714
     DOI: 10.1021/acs.jctc.0c01306
   
   for ONIOM refer to:
   * C. Plett, A. Katbashev, S. Ehlert, S. Grimme, M. Bursch,
     Phys. Chem. Chem. Phys., 2023, 25, 17860-17868. DOI: 10.1039/D3CP02178E
   
   for DIPRO refer to:
   * J. Kohn, N. Gildemeister, S. Grimme, D. Fazzi, A. Hansen,
     J. Chem. Phys., 2023, just accepted.
   
   for PTB refer to:
   * S. Grimme, M. Mueller, A. Hansen, J. Chem. Phys., 2023, 158, 124111.
     DOI: 10.1063/5.0137838
   
   with help from (in alphabetical order)
   P. Atkinson, C. Bannwarth, F. Bohle, G. Brandenburg, E. Caldeweyher
   M. Checinski, S. Dohm, S. Ehlert, S. Ehrlich, I. Gerasimov, C. Hölzer
   A. Katbashev, J. Kohn, J. Koopman, C. Lavigne, S. Lehtola, F. März, M. Müller,
   F. Musil, H. Neugebauer, J. Pisarek, C. Plett, P. Pracht, F. Pultar,
   J. Seibert, P. Shushkov, S. Spicher, M. Stahn, M. Steiner, T. Strunk,
   J. Stückrath, T. Rose, and J. Unsleber
   
 * started run on 2026/08/20 at 02:28:48.161     
   ID    Z sym.   atoms
    1    6 C      1-4, 6
    2    7 N      5, 7
    3   16 S      8
    4    8 O      9
    5    1 H      10-17

           -------------------------------------------------
          |                Calculation Setup                |
           -------------------------------------------------

          program call               : /h/399/yunhengzou/micromamba/envs/el-agente/bin/xtb subB_guess.xyz --opt --gfn 2 -P 4 --chrg 0 --uhf 0
          coordinate file            : subB_guess.xyz
          omp threads                :                     4


           -------------------------------------------------
          |                 G F N 2 - x T B                 |
           -------------------------------------------------

        Reference                      10.1021/acs.jctc.8b01176
      * Hamiltonian:
        H0-scaling (s, p, d)           1.850000    2.230000    2.230000
        zeta-weighting                 0.500000
      * Dispersion:
        s8                             2.700000
        a1                             0.520000
        a2                             5.000000
        s9                             5.000000
      * Repulsion:
        kExp                           1.500000    1.000000
        rExp                           1.000000
      * Coulomb:
        alpha                          2.000000
        third order                    shell-resolved
        anisotropic                    true
        a3                             3.000000
        a5                             4.000000
        cn-shift                       1.200000
        cn-exp                         4.000000
        max-rad                        5.000000


          ...................................................
          :                      SETUP                      :
          :.................................................:
          :  # basis functions                  50          :
          :  # atomic orbitals                  49          :
          :  # shells                           27          :
          :  # electrons                        50          :
          :  max. iterations                   250          :
          :  Hamiltonian                  GFN2-xTB          :
          :  restarted?                      false          :
          :  GBSA solvation                  false          :
          :  PC potential                    false          :
          :  electronic temp.          300.0000000     K    :
          :  accuracy                    1.0000000          :
          :  -> integral cutoff          0.2500000E+02      :
          :  -> integral neglect         0.1000000E-07      :
          :  -> SCF convergence          0.1000000E-05 Eh   :
          :  -> wf. convergence          0.1000000E-03 e    :
          :  Broyden damping             0.4000000          :
          :  net charge                          0          :
          :  unpaired electrons                  0          :
          ...................................................

 iter      E             dE          RMSdq      gap      omega  full diag
   1    -28.0275302 -0.280275E+02  0.480E+00    2.61       0.0  T
   2    -28.1230485 -0.955182E-01  0.298E+00    1.90       1.0  T
   3    -28.1268363 -0.378784E-02  0.161E+00    2.04       1.0  T
   4    -28.1230897  0.374662E-02  0.609E-01    1.96       1.0  T
   5    -28.1268444 -0.375469E-02  0.337E-01    2.03       1.0  T
   6    -28.1276124 -0.767994E-03  0.107E-01    2.01       1.0  T
   7    -28.1276443 -0.319660E-04  0.521E-02    2.01       1.0  T
   8    -28.1276667 -0.223371E-04  0.259E-02    2.01       1.0  T
   9    -28.1276683 -0.159863E-05  0.958E-03    2.01       2.5  T
  10    -28.1276685 -0.240457E-06  0.282E-03    2.01       8.6  T
  11    -28.1276685 -0.388749E-07  0.158E-03    2.01      15.3  T
  12    -28.1276686 -0.259745E-08  0.362E-04    2.01      66.9  T
  13    -28.1276686 -0.365823E-09  0.135E-04    2.01     179.0  T

   *** convergence criteria satisfied after 13 iterations ***

         #    Occupation            Energy/Eh            Energy/eV
      -------------------------------------------------------------
         1        2.0000           -0.7314552             -19.9039
       ...           ...                  ...                  ...
        19        2.0000           -0.4652033             -12.6588
        20        2.0000           -0.4539845             -12.3535
        21        2.0000           -0.4357295             -11.8568
        22        2.0000           -0.4085368             -11.1169
        23        2.0000           -0.3737757             -10.1710
        24        2.0000           -0.3668745              -9.9832
        25        2.0000           -0.3606973              -9.8151 (HOMO)
        26                         -0.2868990              -7.8069 (LUMO)
        27                         -0.2022080              -5.5024
        28                         -0.1927529              -5.2451
        29                         -0.1280344              -3.4840
        30                         -0.0668385              -1.8188
       ...                                ...                  ...
        49                          0.7917146              21.5437
      -------------------------------------------------------------
                  HL-Gap            0.0737983 Eh            2.0082 eV
             Fermi-level           -0.3237982 Eh           -8.8110 eV

 SCC (total)                   0 d,  0 h,  0 min,  6.968 sec
 SCC setup                      ...        0 min,  0.027 sec (  0.391%)
 Dispersion                     ...        0 min,  0.031 sec (  0.446%)
 classical contributions        ...        0 min,  0.019 sec (  0.277%)
 integral evaluation            ...        0 min,  0.071 sec (  1.024%)
 iterations                     ...        0 min,  6.501 sec ( 93.301%)
 molecular gradient             ...        0 min,  0.318 sec (  4.557%)
 printout                       ...        0 min,  0.000 sec (  0.003%)

         :::::::::::::::::::::::::::::::::::::::::::::::::::::
         ::                     SUMMARY                     ::
         :::::::::::::::::::::::::::::::::::::::::::::::::::::
         :: total energy             -27.848001615280 Eh    ::
         :: gradient norm              0.139214442025 Eh/a0 ::
         :: HOMO-LUMO gap              2.008153535073 eV    ::
         ::.................................................::
         :: SCC energy               -28.127647150109 Eh    ::
         :: -> isotropic ES            0.061855923208 Eh    ::
         :: -> anisotropic ES          0.000666865440 Eh    ::
         :: -> anisotropic XC          0.016641684506 Eh    ::
         :: -> dispersion             -0.014730678259 Eh    ::
         :: repulsion energy           0.279645534829 Eh    ::
         :: add. restraining           0.000000000000 Eh    ::
         :: total charge              -0.000000000000 e     ::
         :::::::::::::::::::::::::::::::::::::::::::::::::::::

      ----------------------------------------------------------- 
     |                   =====================                   |
     |                        A N C O P T                        |
     |                   =====================                   |
     |               Approximate Normal Coordinate               |
     |                Rational Function Optimizer                |
      ----------------------------------------------------------- 
      ----------------------------------------------------------- 
     |                   =====================                   |
     |                        A N C O P T                        |
     |                   =====================                   |
     |               Approximate Normal Coordinate               |
     |                Rational Function Optimizer                |
      ----------------------------------------------------------- 

          ...................................................
          :                      SETUP                      :
          :.................................................:
          :   optimization level            normal          :
          :   max. optcycles                   200          :
          :   ANC micro-cycles                  20          :
          :   degrees of freedom                45          :
          :.................................................:
          :   RF solver                   davidson          :
          :   write xtbopt.log                true          :
          :   linear?                        false          :
          :   energy convergence         0.5000000E-05 Eh   :
          :   grad. convergence          0.1000000E-02 Eh/α :
          :   maxmium RF displ.          1.0000000          :
          :   Hlow (freq-cutoff)         0.1000000E-01      :
          :   Hmax (freq-cutoff)         5.0000000          :
          :   S6 in model hess.         20.0000000          :
          ...................................................

generating ANC from exact Hessian ...
Using Lindh-Hessian (1995)
 Shifting diagonal of input Hessian by    7.3643240234386514E-003
 Lowest  eigenvalues of input Hessian
    0.000000    0.000000    0.000000    0.000000    0.000000    0.000000
    0.010000    0.014510    0.016321    0.018338    0.020371    0.024082
    0.028117    0.033650    0.037176    0.048607    0.066666    0.069424
 Highest eigenvalues
    1.298615    1.461255    1.710037    1.904191    2.061673    2.115316


........................................................................
.............................. CYCLE    1 ..............................
........................................................................

 iter      E             dE          RMSdq      gap      omega  full diag
   1    -28.1276686 -0.281277E+02  0.612E-05    2.01       0.0  T
   2    -28.1276686  0.397193E-11  0.502E-05    2.01     483.2  T
   3    -28.1276686 -0.106439E-10  0.355E-05    2.01     682.5  T
     SCC iter.                  ...        0 min,  0.641 sec
     gradient                   ...        0 min,  0.376 sec
 * total energy  :   -27.8480016 Eh     change       -0.4702372E-10 Eh
   gradient norm :     0.1392146 Eh/α   predicted     0.0000000E+00 (-100.00%)
   displ. norm   :     0.2994237 α      lambda       -0.2206104E-01
   maximum displ.:     0.1340275 α      in ANC's #9, #26, #5, ...

........................................................................
.............................. CYCLE    2 ..............................
........................................................................

 iter      E             dE          RMSdq      gap      omega  full diag
   1    -28.1657588 -0.281658E+02  0.499E-01    2.15       0.0  T
   2    -28.1637837  0.197519E-02  0.593E-01    2.20       1.0  T
   3    -28.1681666 -0.438291E-02  0.166E-01    2.15       1.0  T
   4    -28.1681743 -0.776748E-05  0.633E-02    2.16       1.0  T
   5    -28.1681853 -0.110074E-04  0.170E-02    2.16       1.4  T
   6    -28.1681857 -0.333626E-06  0.615E-03    2.16       3.9  T
   7    -28.1681859 -0.205389E-06  0.286E-03    2.16       8.5  T
   8    -28.1681859 -0.662870E-07  0.141E-03    2.16      17.2  T
   9    -28.1681859 -0.594783E-08  0.397E-04    2.16      61.1  T
  10    -28.1681859 -0.433005E-09  0.207E-04    2.16     117.2  T
     SCC iter.                  ...        0 min,  4.782 sec
     gradient                   ...        0 min,  0.455 sec
 * total energy  :   -27.8645605 Eh     change       -0.1655885E-01 Eh
   gradient norm :     0.0776439 Eh/α   predicted    -0.1201945E-01 ( -27.41%)
   displ. norm   :     0.3221608 α      lambda       -0.1130698E-01
   maximum displ.:     0.1735836 α      in ANC's #9, #5, #4, ...

........................................................................
.............................. CYCLE    3 ..............................
........................................................................

 iter      E             dE          RMSdq      gap      omega  full diag
   1    -28.1906581 -0.281907E+02  0.584E-01    2.29       0.0  T
   2    -28.1876550  0.300307E-02  0.737E-01    2.32       1.0  T
   3    -28.1947777 -0.712267E-02  0.175E-01    2.29       1.0  T
   4    -28.1947559  0.218073E-04  0.792E-02    2.29       1.0  T
   5    -28.1947762 -0.202799E-04  0.340E-02    2.29       1.0  T
   6    -28.1947879 -0.117036E-04  0.122E-02    2.29       2.0  T
   7    -28.1947889 -0.968532E-06  0.339E-03    2.29       7.2  T
   8    -28.1947889 -0.361666E-07  0.148E-03    2.29      16.4  T
   9    -28.1947889 -0.304920E-08  0.604E-04    2.29      40.2  T
  10    -28.1947889 -0.621672E-09  0.225E-04    2.29     107.8  T
     SCC iter.                  ...        0 min,  5.641 sec
     gradient                   ...        0 min,  0.238 sec
 * total energy  :   -27.8698124 Eh     change       -0.5251885E-02 Eh
   gradient norm :     0.0290727 Eh/α   predicted    -0.6240248E-02 (  18.82%)
   displ. norm   :     0.1341376 α      lambda       -0.1169512E-02
   maximum displ.:     0.0745697 α      in ANC's #5, #3, #4, ...

........................................................................
.............................. CYCLE    4 ..............................
........................................................................

 iter      E             dE          RMSdq      gap      omega  full diag
   1    -28.1900081 -0.281900E+02  0.146E-01    2.27       0.0  T
   2    -28.1898888  0.119321E-03  0.147E-01    2.27       1.0  T
   3    -28.1901710 -0.282214E-03  0.514E-02    2.27       1.0  T
   4    -28.1901811 -0.100869E-04  0.171E-02    2.27       1.4  T
   5    -28.1901818 -0.736680E-06  0.801E-03    2.27       3.0  T
   6    -28.1901825 -0.728896E-06  0.330E-03    2.27       7.4  T
   7    -28.1901826 -0.639088E-07  0.638E-04    2.27      38.0  T
   8    -28.1901826 -0.424333E-09  0.322E-04    2.27      75.3  T
     SCC iter.                  ...        0 min,  2.512 sec
     gradient                   ...        0 min,  0.326 sec
 * total energy  :   -27.8706039 Eh     change       -0.7915433E-03 Eh
   gradient norm :     0.0108982 Eh/α   predicted    -0.5952776E-03 ( -24.80%)
   displ. norm   :     0.1844357 α      lambda       -0.5264604E-03
   maximum displ.:     0.1018278 α      in ANC's #5, #3, #4, ...

........................................................................
.............................. CYCLE    5 ..............................
........................................................................

 iter      E             dE          RMSdq      gap      omega  full diag
   1    -28.1891318 -0.281891E+02  0.933E-02    2.27       0.0  T
   2    -28.1891260  0.574683E-05  0.580E-02    2.27       1.0  T
   3    -28.1891282 -0.212202E-05  0.526E-02    2.28       1.0  T
   4    -28.1891539 -0.256995E-04  0.114E-02    2.27       2.1  T
   5    -28.1891545 -0.665443E-06  0.554E-03    2.27       4.4  T
   6    -28.1891548 -0.265218E-06  0.270E-03    2.27       9.0  T
   7    -28.1891548 -0.462527E-07  0.669E-04    2.27      36.2  T
   8    -28.1891548 -0.341888E-09  0.342E-04    2.27      70.9  T
     SCC iter.                  ...        0 min,  1.963 sec
     gradient                   ...        0 min,  0.420 sec
 * total energy  :   -27.8709361 Eh     change       -0.3322043E-03 Eh
   gradient norm :     0.0049876 Eh/α   predicted    -0.2721867E-03 ( -18.07%)
   displ. norm   :     0.1244007 α      lambda       -0.1509701E-03
   maximum displ.:     0.0740969 α      in ANC's #3, #1, #5, ...

........................................................................
.............................. CYCLE    6 ..............................
........................................................................

 iter      E             dE          RMSdq      gap      omega  full diag
   1    -28.1898372 -0.281898E+02  0.534E-02    2.28       0.0  T
   2    -28.1898336  0.361077E-05  0.336E-02    2.28       1.0  T
   3    -28.1898368 -0.317206E-05  0.298E-02    2.28       1.0  T
   4    -28.1898447 -0.799398E-05  0.680E-03    2.28       3.6  T
   5    -28.1898450 -0.247306E-06  0.352E-03    2.28       6.9  T
   6    -28.1898451 -0.120487E-06  0.158E-03    2.28      15.3  T
   7    -28.1898451 -0.603175E-08  0.481E-04    2.28      50.4  T
   8    -28.1898451 -0.176623E-09  0.150E-04    2.28     161.5  T
     SCC iter.                  ...        0 min,  3.144 sec
     gradient                   ...        0 min,  0.241 sec
 * total energy  :   -27.8710513 Eh     change       -0.1152231E-03 Eh
   gradient norm :     0.0042053 Eh/α   predicted    -0.7665288E-04 ( -33.47%)
   displ. norm   :     0.1933680 α      lambda       -0.1755819E-03
   maximum displ.:     0.1167640 α      in ANC's #3, #1, #2, ...

........................................................................
.............................. CYCLE    7 ..............................
........................................................................

 iter      E             dE          RMSdq      gap      omega  full diag
   1    -28.1907595 -0.281908E+02  0.882E-02    2.30       0.0  T
   2    -28.1907585  0.100363E-05  0.518E-02    2.29       1.0  T
   3    -28.1907603 -0.172555E-05  0.459E-02    2.29       1.0  T
   4    -28.1907791 -0.188579E-04  0.137E-02    2.29       1.8  T
   5    -28.1907797 -0.549247E-06  0.614E-03    2.29       4.0  T
   6    -28.1907800 -0.358455E-06  0.328E-03    2.29       7.4  T
   7    -28.1907801 -0.408120E-07  0.711E-04    2.29      34.1  T
   8    -28.1907801 -0.249273E-09  0.344E-04    2.29      70.6  T
     SCC iter.                  ...        0 min,  6.197 sec
     gradient                   ...        0 min,  0.002 sec
 * total energy  :   -27.8711819 Eh     change       -0.1305893E-03 Eh
   gradient norm :     0.0038981 Eh/α   predicted    -0.9107706E-04 ( -30.26%)
   displ. norm   :     0.2222201 α      lambda       -0.1493893E-03
   maximum displ.:     0.1296719 α      in ANC's #3, #1, #2, ...

........................................................................
.............................. CYCLE    8 ..............................
........................................................................

 iter      E             dE          RMSdq      gap      omega  full diag
   1    -28.1909801 -0.281910E+02  0.108E-01    2.30       0.0  T
   2    -28.1909862 -0.609313E-05  0.590E-02    2.29       1.0  T
   3    -28.1909797  0.648647E-05  0.513E-02    2.30       1.0  T
   4    -28.1910027 -0.229730E-04  0.190E-02    2.29       1.3  T
   5    -28.1910048 -0.209590E-05  0.683E-03    2.29       3.6  T
   6    -28.1910051 -0.296790E-06  0.416E-03    2.29       5.8  T
   7    -28.1910052 -0.950971E-07  0.847E-04    2.29      28.6  T
   8    -28.1910052 -0.579639E-09  0.424E-04    2.29      57.2  T
     SCC iter.                  ...        0 min,  1.464 sec
     gradient                   ...        0 min,  0.344 sec
 * total energy  :   -27.8712904 Eh     change       -0.1084486E-03 Eh
   gradient norm :     0.0062712 Eh/α   predicted    -0.7838328E-04 ( -27.72%)
   displ. norm   :     0.1934177 α      lambda       -0.1158274E-03
   maximum displ.:     0.1205747 α      in ANC's #1, #3, #6, ...

........................................................................
.............................. CYCLE    9 ..............................
........................................................................

 iter      E             dE          RMSdq      gap      omega  full diag
   1    -28.1909957 -0.281910E+02  0.944E-02    2.30       0.0  T
   2    -28.1910019 -0.620039E-05  0.474E-02    2.29       1.0  T
   3    -28.1909945  0.747065E-05  0.357E-02    2.29       1.0  T
   4    -28.1910036 -0.909272E-05  0.176E-02    2.29       1.4  T
   5    -28.1910066 -0.307955E-05  0.564E-03    2.29       4.3  T
   6    -28.1910067 -0.985596E-07  0.366E-03    2.29       6.6  T
   7    -28.1910068 -0.990692E-07  0.768E-04    2.29      31.6  T
   8    -28.1910068 -0.460854E-09  0.339E-04    2.29      71.6  T
     SCC iter.                  ...        0 min,  3.888 sec
     gradient                   ...        0 min,  0.244 sec
 * total energy  :   -27.8713774 Eh     change       -0.8703578E-04 Eh
   gradient norm :     0.0078683 Eh/α   predicted    -0.6008047E-04 ( -30.97%)
   displ. norm   :     0.1836531 α      lambda       -0.1269078E-03
   maximum displ.:     0.1237706 α      in ANC's #1, #3, #6, ...

........................................................................
.............................. CYCLE   10 ..............................
........................................................................

 iter      E             dE          RMSdq      gap      omega  full diag
   1    -28.1910921 -0.281911E+02  0.858E-02    2.29       0.0  T
   2    -28.1910949 -0.275497E-05  0.429E-02    2.29       1.0  T
   3    -28.1910933  0.156948E-05  0.182E-02    2.29       1.3  T
   4    -28.1910951 -0.180714E-05  0.926E-03    2.29       2.6  T
   5    -28.1910958 -0.647516E-06  0.489E-03    2.29       5.0  T
   6    -28.1910958 -0.544666E-07  0.270E-03    2.29       9.0  T
   7    -28.1910959 -0.901689E-07  0.741E-04    2.29      32.7  T
   8    -28.1910959 -0.441574E-09  0.171E-04    2.29     142.1  T
     SCC iter.                  ...        0 min,  4.604 sec
     gradient                   ...        0 min,  0.376 sec
 * total energy  :   -27.8714705 Eh     change       -0.9315086E-04 Eh
   gradient norm :     0.0066041 Eh/α   predicted    -0.6559464E-04 ( -29.58%)
   displ. norm   :     0.1630023 α      lambda       -0.9610516E-04
   maximum displ.:     0.1149288 α      in ANC's #1, #3, #2, ...

........................................................................
.............................. CYCLE   11 ..............................
........................................................................

 iter      E             dE          RMSdq      gap      omega  full diag
   1    -28.1907121 -0.281907E+02  0.698E-02    2.29       0.0  T
   2    -28.1907134 -0.131132E-05  0.360E-02    2.29       1.0  T
   3    -28.1907117  0.172214E-05  0.149E-02    2.29       1.6  T
   4    -28.1907140 -0.232274E-05  0.583E-03    2.29       4.2  T
   5    -28.1907140 -0.113212E-07  0.278E-03    2.29       8.7  T
   6    -28.1907141 -0.371215E-07  0.157E-03    2.29      15.4  T
   7    -28.1907141 -0.297312E-07  0.545E-04    2.29      44.5  T
   8    -28.1907141 -0.294293E-09  0.193E-04    2.29     125.5  T
     SCC iter.                  ...        0 min,  4.503 sec
     gradient                   ...        0 min,  0.002 sec
 * total energy  :   -27.8715371 Eh     change       -0.6652521E-04 Eh
   gradient norm :     0.0039492 Eh/α   predicted    -0.4932939E-04 ( -25.85%)
   displ. norm   :     0.1166210 α      lambda       -0.4615368E-04
   maximum displ.:     0.0826247 α      in ANC's #1, #3, #2, ...

........................................................................
.............................. CYCLE   12 ..............................
........................................................................

 iter      E             dE          RMSdq      gap      omega  full diag
   1    -28.1905483 -0.281905E+02  0.478E-02    2.29       0.0  T
   2    -28.1905491 -0.712532E-06  0.249E-02    2.29       1.0  T
   3    -28.1905466  0.246041E-05  0.148E-02    2.29       1.6  T
   4    -28.1905495 -0.289611E-05  0.501E-03    2.29       4.8  T
   5    -28.1905495 -0.360496E-07  0.290E-03    2.29       8.4  T
   6    -28.1905496 -0.757095E-07  0.119E-03    2.29      20.3  T
   7    -28.1905496 -0.123084E-07  0.349E-04    2.29      69.5  T
   8    -28.1905496 -0.102307E-09  0.161E-04    2.29     150.3  T
     SCC iter.                  ...        0 min,  2.087 sec
     gradient                   ...        0 min,  0.323 sec
 * total energy  :   -27.8715688 Eh     change       -0.3175160E-04 Eh
   gradient norm :     0.0020688 Eh/α   predicted    -0.2339212E-04 ( -26.33%)
   displ. norm   :     0.0885998 α      lambda       -0.2273899E-04
   maximum displ.:     0.0585288 α      in ANC's #1, #3, #2, ...

........................................................................
.............................. CYCLE   13 ..............................
........................................................................

 iter      E             dE          RMSdq      gap      omega  full diag
   1    -28.1906096 -0.281906E+02  0.354E-02    2.29       0.0  T
   2    -28.1906098 -0.206644E-06  0.185E-02    2.29       1.3  T
   3    -28.1906074  0.241729E-05  0.148E-02    2.30       1.6  T
   4    -28.1906104 -0.293438E-05  0.396E-03    2.30       6.1  T
   5    -28.1906104 -0.348501E-07  0.214E-03    2.30      11.4  T
   6    -28.1906104 -0.433329E-07  0.866E-04    2.30      28.0  T
   7    -28.1906104 -0.473255E-08  0.262E-04    2.30      92.4  T
     SCC iter.                  ...        0 min,  3.372 sec
     gradient                   ...        0 min,  0.301 sec
 * total energy  :   -27.8715846 Eh     change       -0.1576838E-04 Eh
   gradient norm :     0.0014252 Eh/α   predicted    -0.1146040E-04 ( -27.32%)
   displ. norm   :     0.0925161 α      lambda       -0.1357564E-04
   maximum displ.:     0.0681154 α      in ANC's #3, #1, #2, ...

........................................................................
.............................. CYCLE   14 ..............................
........................................................................

 iter      E             dE          RMSdq      gap      omega  full diag
   1    -28.1912082 -0.281912E+02  0.342E-02    2.30       0.0  T
   2    -28.1912083 -0.165871E-06  0.181E-02    2.30       1.3  T
   3    -28.1912066  0.171404E-05  0.120E-02    2.30       2.0  T
   4    -28.1912086 -0.197196E-05  0.380E-03    2.30       6.4  T
   5    -28.1912086 -0.270631E-07  0.204E-03    2.30      11.9  T
   6    -28.1912087 -0.458856E-07  0.732E-04    2.30      33.1  T
   7    -28.1912087 -0.310904E-08  0.278E-04    2.30      87.2  T
     SCC iter.                  ...        0 min,  3.588 sec
     gradient                   ...        0 min,  0.201 sec
 * total energy  :   -27.8715966 Eh     change       -0.1199990E-04 Eh
   gradient norm :     0.0018269 Eh/α   predicted    -0.6813359E-05 ( -43.22%)
   displ. norm   :     0.1047152 α      lambda       -0.1075336E-04
   maximum displ.:     0.0852801 α      in ANC's #3, #1, #2, ...

........................................................................
.............................. CYCLE   15 ..............................
........................................................................

 iter      E             dE          RMSdq      gap      omega  full diag
   1    -28.1904949 -0.281905E+02  0.405E-02    2.30       0.0  T
   2    -28.1904961 -0.118954E-05  0.217E-02    2.30       1.1  T
   3    -28.1904946  0.147442E-05  0.164E-02    2.30       1.5  T
   4    -28.1904966 -0.196590E-05  0.836E-03    2.30       2.9  T
   5    -28.1904972 -0.665149E-06  0.208E-03    2.30      11.7  T
   6    -28.1904972 -0.624794E-08  0.136E-03    2.30      17.8  T
   7    -28.1904973 -0.167620E-07  0.295E-04    2.30      82.2  T
   8    -28.1904973 -0.221529E-09  0.160E-04    2.30     151.7  T
     SCC iter.                  ...        0 min,  2.913 sec
     gradient                   ...        0 min,  0.289 sec
 * total energy  :   -27.8716039 Eh     change       -0.7342450E-05 Eh
   gradient norm :     0.0023522 Eh/α   predicted    -0.5402457E-05 ( -26.42%)
   displ. norm   :     0.0782970 α      lambda       -0.2830952E-04
   maximum displ.:     0.0642593 α      in ANC's #3, #6, #4, ...

........................................................................
.............................. CYCLE   16 ..............................
........................................................................

 iter      E             dE          RMSdq      gap      omega  full diag
   1    -28.1913125 -0.281913E+02  0.273E-02    2.30       0.0  T
   2    -28.1913126 -0.102340E-06  0.154E-02    2.30       1.6  T
   3    -28.1913106  0.197955E-05  0.135E-02    2.30       1.8  T
   4    -28.1913130 -0.237906E-05  0.250E-03    2.30       9.7  T
   5    -28.1913130 -0.854256E-08  0.146E-03    2.30      16.6  T
   6    -28.1913131 -0.154793E-07  0.582E-04    2.30      41.7  T
   7    -28.1913131 -0.356520E-08  0.169E-04    2.30     143.3  T
     SCC iter.                  ...        0 min,  3.479 sec
     gradient                   ...        0 min,  0.433 sec
 * total energy  :   -27.8716247 Eh     change       -0.2072531E-04 Eh
   gradient norm :     0.0019101 Eh/α   predicted    -0.1424156E-04 ( -31.28%)
   displ. norm   :     0.2031929 α      lambda       -0.3219693E-04
   maximum displ.:     0.1735349 α      in ANC's #3, #4, #6, ...

........................................................................
.............................. CYCLE   17 ..............................
........................................................................

 iter      E             dE          RMSdq      gap      omega  full diag
   1    -28.1913976 -0.281914E+02  0.663E-02    2.31       0.0  T
   2    -28.1913977 -0.121637E-06  0.377E-02    2.30       1.0  T
   3    -28.1913870  0.107755E-04  0.296E-02    2.30       1.0  T
   4    -28.1913991 -0.121571E-04  0.504E-03    2.30       4.8  T
   5    -28.1913991  0.459386E-07  0.343E-03    2.30       7.1  T
   6    -28.1913992 -0.138668E-06  0.698E-04    2.30      34.8  T
   7    -28.1913992 -0.260867E-08  0.336E-04    2.30      72.1  T
     SCC iter.                  ...        0 min,  1.792 sec
     gradient                   ...        0 min,  0.376 sec
 * total energy  :   -27.8716611 Eh     change       -0.3639047E-04 Eh
   gradient norm :     0.0031377 Eh/α   predicted    -0.1639431E-04 ( -54.95%)
   displ. norm   :     0.2524613 α      lambda       -0.6529682E-04
   maximum displ.:     0.2119706 α      in ANC's #3, #4, #6, ...

........................................................................
.............................. CYCLE   18 ..............................
........................................................................

 iter      E             dE          RMSdq      gap      omega  full diag
   1    -28.1902371 -0.281902E+02  0.814E-02    2.31       0.0  T
   2    -28.1902378 -0.747072E-06  0.464E-02    2.30       1.0  T
   3    -28.1902298  0.796719E-05  0.253E-02    2.30       1.0  T
   4    -28.1902384 -0.859458E-05  0.657E-03    2.30       3.7  T
   5    -28.1902387 -0.267828E-06  0.355E-03    2.30       6.8  T
   6    -28.1902388 -0.121823E-06  0.109E-03    2.30      22.2  T
   7    -28.1902388 -0.107228E-07  0.337E-04    2.30      71.9  T
   8    -28.1902388 -0.270205E-09  0.122E-04    2.30     198.5  T
     SCC iter.                  ...        0 min,  3.871 sec
     gradient                   ...        0 min,  0.232 sec
 * total energy  :   -27.8717132 Eh     change       -0.5217921E-04 Eh
   gradient norm :     0.0044164 Eh/α   predicted    -0.3472866E-04 ( -33.44%)
   displ. norm   :     0.3470356 α      lambda       -0.1148221E-03
   maximum displ.:     0.2479531 α      in ANC's #3, #4, #1, ...

........................................................................
.............................. CYCLE   19 ..............................
........................................................................

 iter      E             dE          RMSdq      gap      omega  full diag
   1    -28.1881394 -0.281881E+02  0.115E-01    2.30       0.0  T
   2    -28.1881404 -0.988038E-06  0.673E-02    2.30       1.0  T
   3    -28.1881084  0.319483E-04  0.488E-02    2.30       1.0  T
   4    -28.1881439 -0.354710E-04  0.778E-03    2.30       3.1  T
   5    -28.1881443 -0.357291E-06  0.453E-03    2.30       5.4  T
   6    -28.1881445 -0.215293E-06  0.119E-03    2.30      20.3  T
   7    -28.1881445 -0.648004E-08  0.379E-04    2.30      63.9  T
   8    -28.1881445 -0.320359E-09  0.100E-04    2.30     241.6  T
     SCC iter.                  ...        0 min,  7.810 sec
     gradient                   ...        0 min,  0.310 sec
 * total energy  :   -27.8717733 Eh     change       -0.6003731E-04 Eh
   gradient norm :     0.0077319 Eh/α   predicted    -0.6432285E-04 (   7.14%)
   displ. norm   :     0.0889409 α      lambda       -0.1085741E-03
   maximum displ.:     0.0654689 α      in ANC's #1, #3, #2, ...

........................................................................
.............................. CYCLE   20 ..............................
........................................................................

 iter      E             dE          RMSdq      gap      omega  full diag
   1    -28.1910308 -0.281910E+02  0.418E-02    2.30       0.0  T
   2    -28.1910322 -0.140372E-05  0.231E-02    2.30       1.1  T
   3    -28.1910296  0.252637E-05  0.161E-02    2.30       1.5  T
   4    -28.1910324 -0.273693E-05  0.643E-03    2.30       3.8  T
   5    -28.1910328 -0.408933E-06  0.178E-03    2.30      13.6  T
   6    -28.1910328  0.534966E-08  0.117E-03    2.30      20.6  T
   7    -28.1910328 -0.159466E-07  0.290E-04    2.30      83.6  T
   8    -28.1910328 -0.128988E-09  0.142E-04    2.30     170.2  T
     SCC iter.                  ...        0 min,  5.164 sec
     gradient                   ...        0 min,  0.320 sec
 * total energy  :   -27.8718123 Eh     change       -0.3902126E-04 Eh
   gradient norm :     0.0063286 Eh/α   predicted    -0.5471609E-04 (  40.22%)
   displ. norm   :     0.2744476 α      lambda       -0.1934775E-03
   maximum displ.:     0.2236536 α      in ANC's #3, #4, #5, ...
 * RMSD in coord.:     0.5759072 α      energy gain  -0.2381067E-01 Eh

generating ANC from exact Hessian ...
Using Lindh-Hessian (1995)
 Shifting diagonal of input Hessian by    6.6583775555142475E-003
 Lowest  eigenvalues of input Hessian
    0.000000    0.000000    0.000000    0.000000    0.000000    0.000000
    0.010000    0.014582    0.017253    0.018918    0.022108    0.027033
    0.029441    0.035756    0.039607    0.061022    0.073067    0.076400
 Highest eigenvalues
    1.412327    1.494340    1.844458    2.076684    2.260593    2.501531


........................................................................
.............................. CYCLE   21 ..............................
........................................................................

 iter      E             dE          RMSdq      gap      omega  full diag
   1    -28.1897329 -0.281897E+02  0.958E-02    2.31       0.0  T
   2    -28.1897360 -0.310199E-05  0.552E-02    2.31       1.0  T
   3    -28.1897245  0.115092E-04  0.307E-02    2.31       1.0  T
   4    -28.1897366 -0.120688E-04  0.965E-03    2.31       2.5  T
   5    -28.1897375 -0.932983E-06  0.329E-03    2.31       7.4  T
   6    -28.1897376 -0.716484E-07  0.200E-03    2.31      12.1  T
   7    -28.1897376 -0.350604E-07  0.400E-04    2.31      60.6  T
   8    -28.1897376 -0.681197E-10  0.172E-04    2.31     141.3  T
     SCC iter.                  ...        0 min,  5.452 sec
     gradient                   ...        0 min,  0.437 sec
 * total energy  :   -27.8718712 Eh     change       -0.5891149E-04 Eh
   gradient norm :     0.0066344 Eh/α   predicted     0.0000000E+00 (-100.00%)
   displ. norm   :     0.0484708 α      lambda       -0.1289154E-03
   maximum displ.:     0.0267070 α      in ANC's #2, #3, #1, ...

........................................................................
.............................. CYCLE   22 ..............................
........................................................................

 iter      E             dE          RMSdq      gap      omega  full diag
   1    -28.1913016 -0.281913E+02  0.338E-02    2.31       0.0  T
   2    -28.1913011  0.496892E-06  0.221E-02    2.31       1.1  T
   3    -28.1913008  0.346311E-06  0.186E-02    2.31       1.3  T
   4    -28.1913043 -0.347631E-05  0.324E-03    2.31       7.5  T
   5    -28.1913043 -0.182445E-07  0.167E-03    2.31      14.5  T
   6    -28.1913043 -0.273230E-07  0.727E-04    2.31      33.4  T
   7    -28.1913043 -0.257732E-08  0.190E-04    2.31     127.9  T
     SCC iter.                  ...        0 min,  2.833 sec
     gradient                   ...        0 min,  0.468 sec
 * total energy  :   -27.8719577 Eh     change       -0.8649333E-04 Eh
   gradient norm :     0.0022302 Eh/α   predicted    -0.6460781E-04 ( -25.30%)
   displ. norm   :     0.0661041 α      lambda       -0.5065702E-04
   maximum displ.:     0.0464460 α      in ANC's #2, #3, #1, ...

........................................................................
.............................. CYCLE   23 ..............................
........................................................................

 iter      E             dE          RMSdq      gap      omega  full diag
   1    -28.1920238 -0.281920E+02  0.288E-02    2.31       0.0  T
   2    -28.1920229  0.865562E-06  0.188E-02    2.31       1.3  T
   3    -28.1920238 -0.847558E-06  0.154E-02    2.31       1.6  T
   4    -28.1920259 -0.217036E-05  0.307E-03    2.31       7.9  T
   5    -28.1920260 -0.812417E-08  0.155E-03    2.31      15.7  T
   6    -28.1920260 -0.167148E-07  0.812E-04    2.31      29.9  T
   7    -28.1920260 -0.446542E-08  0.207E-04    2.31     116.9  T
     SCC iter.                  ...        0 min,  2.568 sec
     gradient                   ...        0 min,  0.400 sec
 * total energy  :   -27.8719945 Eh     change       -0.3681033E-04 Eh
   gradient norm :     0.0017602 Eh/α   predicted    -0.2543907E-04 ( -30.89%)
   displ. norm   :     0.1678460 α      lambda       -0.5316554E-04
   maximum displ.:     0.1300569 α      in ANC's #2, #3, #1, ...

........................................................................
.............................. CYCLE   24 ..............................
........................................................................

 iter      E             dE          RMSdq      gap      omega  full diag
   1    -28.1921820 -0.281922E+02  0.634E-02    2.31       0.0  T
   2    -28.1921783  0.372012E-05  0.405E-02    2.30       1.0  T
   3    -28.1921812 -0.294999E-05  0.338E-02    2.30       1.0  T
   4    -28.1921916 -0.104406E-04  0.725E-03    2.30       3.3  T
   5    -28.1921917 -0.833045E-07  0.314E-03    2.30       7.7  T
   6    -28.1921918 -0.273030E-07  0.190E-03    2.30      12.7  T
   7    -28.1921918 -0.341780E-07  0.454E-04    2.30      53.4  T
   8    -28.1921918 -0.941363E-10  0.251E-04    2.30      96.5  T
     SCC iter.                  ...        0 min,  3.895 sec
     gradient                   ...        0 min,  0.309 sec
 * total energy  :   -27.8720447 Eh     change       -0.5017316E-04 Eh
   gradient norm :     0.0043202 Eh/α   predicted    -0.2691372E-04 ( -46.36%)
   displ. norm   :     0.0697535 α      lambda       -0.4358842E-04
   maximum displ.:     0.0552290 α      in ANC's #2, #3, #1, ...

........................................................................
.............................. CYCLE   25 ..............................
........................................................................

 iter      E             dE          RMSdq      gap      omega  full diag
   1    -28.1920094 -0.281920E+02  0.255E-02    2.30       0.0  T
   2    -28.1920091  0.221110E-06  0.151E-02    2.30       1.6  T
   3    -28.1920083  0.798296E-06  0.138E-02    2.30       1.8  T
   4    -28.1920103 -0.194249E-05  0.305E-03    2.30       7.9  T
   5    -28.1920103 -0.406636E-07  0.107E-03    2.30      22.7  T
   6    -28.1920103  0.921315E-09  0.579E-04    2.30      41.9  T
   7    -28.1920103 -0.390067E-08  0.178E-04    2.30     136.0  T
     SCC iter.                  ...        0 min,  3.061 sec
     gradient                   ...        0 min,  0.406 sec
 * total energy  :   -27.8720851 Eh     change       -0.4040556E-04 Eh
   gradient norm :     0.0037273 Eh/α   predicted    -0.2190265E-04 ( -45.79%)
   displ. norm   :     0.2233468 α      lambda       -0.1457148E-03
   maximum displ.:     0.1768011 α      in ANC's #2, #3, #1, ...

........................................................................
.............................. CYCLE   26 ..............................
........................................................................

 iter      E             dE          RMSdq      gap      omega  full diag
   1    -28.1908737 -0.281909E+02  0.819E-02    2.30       0.0  T
   2    -28.1908731  0.550100E-06  0.471E-02    2.29       1.0  T
   3    -28.1908585  0.146608E-04  0.430E-02    2.30       1.0  T
   4    -28.1908791 -0.206965E-04  0.934E-03    2.30       2.6  T
   5    -28.1908797 -0.560853E-06  0.299E-03    2.30       8.1  T
   6    -28.1908797  0.621203E-08  0.143E-03    2.30      16.9  T
   7    -28.1908797 -0.232619E-07  0.517E-04    2.30      46.9  T
   8    -28.1908797 -0.369337E-09  0.238E-04    2.30     101.9  T
     SCC iter.                  ...        0 min,  5.239 sec
     gradient                   ...        0 min,  0.380 sec
 * total energy  :   -27.8722021 Eh     change       -0.1170346E-03 Eh
   gradient norm :     0.0037612 Eh/α   predicted    -0.7649538E-04 ( -34.64%)
   displ. norm   :     0.3009351 α      lambda       -0.1525580E-03
   maximum displ.:     0.2418179 α      in ANC's #2, #3, #4, ...

........................................................................
.............................. CYCLE   27 ..............................
........................................................................

 iter      E             dE          RMSdq      gap      omega  full diag
   1    -28.1886088 -0.281886E+02  0.108E-01    2.29       0.0  T
   2    -28.1886091 -0.273168E-06  0.617E-02    2.29       1.0  T
   3    -28.1885812  0.278686E-04  0.543E-02    2.29       1.0  T
   4    -28.1886160 -0.348508E-04  0.115E-02    2.29       2.1  T
   5    -28.1886170 -0.933421E-06  0.355E-03    2.29       6.8  T
   6    -28.1886170  0.120992E-07  0.167E-03    2.29      14.5  T
   7    -28.1886170 -0.328649E-07  0.611E-04    2.29      39.7  T
   8    -28.1886170 -0.618005E-09  0.301E-04    2.29      80.6  T
     SCC iter.                  ...        0 min,  5.079 sec
     gradient                   ...        0 min,  0.289 sec
 * total energy  :   -27.8722846 Eh     change       -0.8247748E-04 Eh
   gradient norm :     0.0085334 Eh/α   predicted    -0.8319385E-04 (   0.87%)
   displ. norm   :     0.0878801 α      lambda       -0.1526293E-03
   maximum displ.:     0.0592332 α      in ANC's #2, #4, #3, ...

........................................................................
.............................. CYCLE   28 ..............................
........................................................................

 iter      E             dE          RMSdq      gap      omega  full diag
   1    -28.1902877 -0.281903E+02  0.421E-02    2.30       0.0  T
   2    -28.1902887 -0.942354E-06  0.246E-02    2.30       1.0  T
   3    -28.1902849  0.377185E-05  0.180E-02    2.30       1.3  T
   4    -28.1902891 -0.419713E-05  0.346E-03    2.30       7.0  T
   5    -28.1902892 -0.858078E-07  0.131E-03    2.30      18.5  T
   6    -28.1902892 -0.572834E-08  0.335E-04    2.30      72.3  T
   7    -28.1902892  0.173916E-09  0.204E-04    2.30     118.7  T
     SCC iter.                  ...        0 min,  3.057 sec
     gradient                   ...        0 min,  0.334 sec
 * total energy  :   -27.8723875 Eh     change       -0.1029314E-03 Eh
   gradient norm :     0.0049993 Eh/α   predicted    -0.7690274E-04 ( -25.29%)
   displ. norm   :     0.2957127 α      lambda       -0.1624689E-03
   maximum displ.:     0.2418026 α      in ANC's #2, #3, #4, ...

........................................................................
.............................. CYCLE   29 ..............................
........................................................................

 iter      E             dE          RMSdq      gap      omega  full diag
   1    -28.1893241 -0.281893E+02  0.966E-02    2.30       0.0  T
   2    -28.1893251 -0.948760E-06  0.553E-02    2.30       1.0  T
   3    -28.1893139  0.112361E-04  0.297E-02    2.30       1.0  T
   4    -28.1893257 -0.118351E-04  0.852E-03    2.30       2.8  T
   5    -28.1893263 -0.582473E-06  0.224E-03    2.30      10.8  T
   6    -28.1893263  0.126638E-08  0.112E-03    2.30      21.7  T
   7    -28.1893263 -0.142794E-07  0.461E-04    2.30      52.7  T
   8    -28.1893263 -0.304929E-09  0.143E-04    2.30     169.5  T
     SCC iter.                  ...        0 min,  6.866 sec
     gradient                   ...        0 min,  0.236 sec
 * total energy  :   -27.8724995 Eh     change       -0.1119603E-03 Eh
   gradient norm :     0.0074189 Eh/α   predicted    -0.8833870E-04 ( -21.10%)
   displ. norm   :     0.2021591 α      lambda       -0.2127556E-03
   maximum displ.:     0.1635041 α      in ANC's #2, #3, #4, ...

........................................................................
.............................. CYCLE   30 ..............................
........................................................................

 iter      E             dE          RMSdq      gap      omega  full diag
   1    -28.1915545 -0.281916E+02  0.633E-02    2.31       0.0  T
   2    -28.1915557 -0.118564E-05  0.360E-02    2.31       1.0  T
   3    -28.1915506  0.504910E-05  0.220E-02    2.31       1.1  T
   4    -28.1915560 -0.531014E-05  0.705E-03    2.31       3.4  T
   5    -28.1915564 -0.487159E-06  0.226E-03    2.31      10.7  T
   6    -28.1915565 -0.126455E-07  0.634E-04    2.31      38.3  T
   7    -28.1915565 -0.417486E-08  0.289E-04    2.31      83.8  T
     SCC iter.                  ...        0 min,  5.748 sec
     gradient                   ...        0 min,  0.236 sec
 * total energy  :   -27.8726461 Eh     change       -0.1466469E-03 Eh
   gradient norm :     0.0050318 Eh/α   predicted    -0.1107222E-03 ( -24.50%)
   displ. norm   :     0.1132626 α      lambda       -0.1296056E-03
   maximum displ.:     0.0787695 α      in ANC's #2, #1, #7, ...

........................................................................
.............................. CYCLE   31 ..............................
........................................................................

 iter      E             dE          RMSdq      gap      omega  full diag
   1    -28.1939592 -0.281940E+02  0.470E-02    2.32       0.0  T
   2    -28.1939601 -0.881560E-06  0.260E-02    2.32       1.0  T
   3    -28.1939551  0.502209E-05  0.231E-02    2.32       1.1  T
   4    -28.1939614 -0.638610E-05  0.485E-03    2.32       5.0  T
   5    -28.1939615 -0.905851E-07  0.198E-03    2.32      12.2  T
   6    -28.1939615 -0.203402E-08  0.110E-03    2.32      22.0  T
   7    -28.1939616 -0.187540E-07  0.232E-04    2.32     104.7  T
   8    -28.1939616 -0.141767E-09  0.793E-05    2.32     306.0  T
     SCC iter.                  ...        0 min,  4.012 sec
     gradient                   ...        0 min,  0.322 sec
 * total energy  :   -27.8727224 Eh     change       -0.7630447E-04 Eh
   gradient norm :     0.0035440 Eh/α   predicted    -0.6563477E-04 ( -13.98%)
   displ. norm   :     0.4630864 α      lambda       -0.2010061E-03
   maximum displ.:     0.3711439 α      in ANC's #2, #3, #4, ...

........................................................................
.............................. CYCLE   32 ..............................
........................................................................

 iter      E             dE          RMSdq      gap      omega  full diag
   1    -28.1887418 -0.281887E+02  0.151E-01    2.32       0.0  T
   2    -28.1887533 -0.115120E-04  0.841E-02    2.32       1.0  T
   3    -28.1887510  0.229303E-05  0.245E-02    2.32       1.0  T
   4    -28.1887528 -0.175023E-05  0.142E-02    2.32       1.7  T
   5    -28.1887549 -0.211127E-05  0.531E-03    2.32       4.6  T
   6    -28.1887549  0.136880E-07  0.337E-03    2.32       7.2  T
   7    -28.1887550 -0.180720E-06  0.677E-04    2.32      35.8  T
   8    -28.1887550 -0.639986E-09  0.240E-04    2.32     100.8  T
     SCC iter.                  ...        0 min,  5.411 sec
     gradient                   ...        0 min,  0.496 sec
 * total energy  :   -27.8725375 Eh     change        0.1848948E-03 Eh
   gradient norm :     0.0150977 Eh/α   predicted    -0.1220661E-03 (-166.02%)
   displ. norm   :     0.2725757 α      lambda       -0.7337027E-03
   maximum displ.:     0.2270647 α      in ANC's #2, #3, #4, ...

........................................................................
.............................. CYCLE   33 ..............................
........................................................................

 iter      E             dE          RMSdq      gap      omega  full diag
   1    -28.1934121 -0.281934E+02  0.105E-01    2.32       0.0  T
   2    -28.1934201 -0.801610E-05  0.587E-02    2.32       1.0  T
   3    -28.1934127  0.743180E-05  0.284E-02    2.32       1.0  T
   4    -28.1934194 -0.669118E-05  0.138E-02    2.32       1.8  T
   5    -28.1934217 -0.226553E-05  0.345E-03    2.32       7.0  T
   6    -28.1934217 -0.355930E-08  0.120E-03    2.32      20.2  T
   7    -28.1934217 -0.187264E-07  0.480E-04    2.32      50.5  T
   8    -28.1934217 -0.810903E-09  0.204E-04    2.32     119.1  T
     SCC iter.                  ...        0 min,  3.729 sec
     gradient                   ...        0 min,  0.395 sec
 * total energy  :   -27.8728062 Eh     change       -0.2686911E-03 Eh
   gradient norm :     0.0029713 Eh/α   predicted    -0.3941160E-03 (  46.68%)
   displ. norm   :     0.0641053 α      lambda       -0.2917277E-04
   maximum displ.:     0.0470116 α      in ANC's #2, #3, #4, ...

........................................................................
.............................. CYCLE   34 ..............................
........................................................................

 iter      E             dE          RMSdq      gap      omega  full diag
   1    -28.1929846 -0.281930E+02  0.199E-02    2.32       0.0  T
   2    -28.1929848 -0.179075E-06  0.115E-02    2.32       2.1  T
   3    -28.1929846  0.196047E-06  0.525E-03    2.32       4.6  T
   4    -28.1929848 -0.216479E-06  0.195E-03    2.32      12.4  T
   5    -28.1929849 -0.469422E-07  0.637E-04    2.32      38.1  T
   6    -28.1929849  0.209693E-08  0.482E-04    2.32      50.3  T
     SCC iter.                  ...        0 min,  3.018 sec
     gradient                   ...        0 min,  0.331 sec
 * total energy  :   -27.8728324 Eh     change       -0.2621201E-04 Eh
   gradient norm :     0.0021942 Eh/α   predicted    -0.1464640E-04 ( -44.12%)
   displ. norm   :     0.3123338 α      lambda       -0.1121554E-03
   maximum displ.:     0.2287458 α      in ANC's #2, #3, #4, ...

........................................................................
.............................. CYCLE   35 ..............................
........................................................................

 iter      E             dE          RMSdq      gap      omega  full diag
   1    -28.1900899 -0.281901E+02  0.955E-02    2.32       0.0  T
   2    -28.1900945 -0.465977E-05  0.551E-02    2.32       1.0  T
   3    -28.1900905  0.402705E-05  0.236E-02    2.32       1.0  T
   4    -28.1900947 -0.419322E-05  0.972E-03    2.31       2.5  T
   5    -28.1900958 -0.108709E-05  0.345E-03    2.31       7.0  T
   6    -28.1900958  0.363286E-07  0.263E-03    2.31       9.2  T
   7    -28.1900959 -0.102726E-06  0.414E-04    2.31      58.6  T
   8    -28.1900959 -0.681929E-09  0.200E-04    2.31     121.5  T
     SCC iter.                  ...        0 min,  2.829 sec
     gradient                   ...        0 min,  0.253 sec
 * total energy  :   -27.8728476 Eh     change       -0.1517175E-04 Eh
   gradient norm :     0.0071097 Eh/α   predicted    -0.6154651E-04 ( 305.67%)
   displ. norm   :     0.1368766 α      lambda       -0.1024511E-03
   maximum displ.:     0.1037572 α      in ANC's #2, #3, #4, ...

........................................................................
.............................. CYCLE   36 ..............................
........................................................................

 iter      E             dE          RMSdq      gap      omega  full diag
   1    -28.1924544 -0.281925E+02  0.468E-02    2.32       0.0  T
   2    -28.1924560 -0.159848E-05  0.263E-02    2.32       1.0  T
   3    -28.1924551  0.827257E-06  0.113E-02    2.32       2.1  T
   4    -28.1924559 -0.765392E-06  0.543E-03    2.32       4.5  T
   5    -28.1924562 -0.336872E-06  0.193E-03    2.32      12.6  T
   6    -28.1924562 -0.205067E-08  0.129E-03    2.32      18.7  T
   7    -28.1924563 -0.237108E-07  0.203E-04    2.32     119.4  T
   8    -28.1924563 -0.124402E-09  0.968E-05    2.32     250.6  T
     SCC iter.                  ...        0 min,  2.953 sec
     gradient                   ...        0 min,  0.385 sec
 * total energy  :   -27.8728857 Eh     change       -0.3811635E-04 Eh
   gradient norm :     0.0017105 Eh/α   predicted    -0.5218774E-04 (  36.92%)
   displ. norm   :     0.0811061 α      lambda       -0.1522160E-04
   maximum displ.:     0.0561769 α      in ANC's #2, #3, #1, ...

........................................................................
.............................. CYCLE   37 ..............................
........................................................................

 iter      E             dE          RMSdq      gap      omega  full diag
   1    -28.1924288 -0.281924E+02  0.237E-02    2.32       0.0  T
   2    -28.1924289 -0.115203E-06  0.140E-02    2.32       1.7  T
   3    -28.1924285  0.464030E-06  0.632E-03    2.32       3.8  T
   4    -28.1924289 -0.471478E-06  0.212E-03    2.32      11.4  T
   5    -28.1924290 -0.536601E-07  0.681E-04    2.32      35.6  T
   6    -28.1924290 -0.808477E-09  0.413E-04    2.32      58.7  T
     SCC iter.                  ...        0 min,  1.748 sec
     gradient                   ...        0 min,  0.401 sec
 * total energy  :   -27.8729053 Eh     change       -0.1960384E-04 Eh
   gradient norm :     0.0018204 Eh/α   predicted    -0.7631313E-05 ( -61.07%)
   displ. norm   :     0.2306402 α      lambda       -0.3946688E-04
   maximum displ.:     0.1561430 α      in ANC's #2, #1, #3, ...

........................................................................
.............................. CYCLE   38 ..............................
........................................................................

 iter      E             dE          RMSdq      gap      omega  full diag
   1    -28.1920323 -0.281920E+02  0.692E-02    2.32       0.0  T
   2    -28.1920328 -0.481132E-06  0.411E-02    2.32       1.0  T
   3    -28.1920238  0.902051E-05  0.260E-02    2.32       1.0  T
   4    -28.1920336 -0.977083E-05  0.332E-03    2.32       7.3  T
   5    -28.1920337 -0.822488E-07  0.145E-03    2.32      16.8  T
   6    -28.1920337  0.148701E-08  0.892E-04    2.32      27.2  T
   7    -28.1920337 -0.111695E-07  0.178E-04    2.32     136.2  T
     SCC iter.                  ...        0 min,  3.709 sec
     gradient                   ...        0 min,  0.435 sec
 * total energy  :   -27.8729337 Eh     change       -0.2831277E-04 Eh
   gradient norm :     0.0035189 Eh/α   predicted    -0.2020150E-04 ( -28.65%)
   displ. norm   :     0.0239499 α      lambda       -0.2334915E-04
   maximum displ.:     0.0215992 α      in ANC's #1, #7, #2, ...

........................................................................
.............................. CYCLE   39 ..............................
........................................................................

 iter      E             dE          RMSdq      gap      omega  full diag
   1    -28.1929099 -0.281929E+02  0.137E-02    2.32       0.0  T
   2    -28.1929101 -0.171214E-06  0.768E-03    2.32       3.2  T
   3    -28.1929098  0.333675E-06  0.604E-03    2.32       4.0  T
   4    -28.1929102 -0.398533E-06  0.180E-03    2.32      13.4  T
   5    -28.1929102 -0.305453E-07  0.590E-04    2.32      41.1  T
   6    -28.1929102 -0.102299E-08  0.366E-04    2.32      66.3  T
     SCC iter.                  ...        0 min,  2.643 sec
     gradient                   ...        0 min,  0.304 sec
 * total energy  :   -27.8729486 Eh     change       -0.1489996E-04 Eh
   gradient norm :     0.0015128 Eh/α   predicted    -0.1168107E-04 ( -21.60%)
   displ. norm   :     0.0741635 α      lambda       -0.1071013E-04
   maximum displ.:     0.0430877 α      in ANC's #1, #2, #23, ...

........................................................................
.............................. CYCLE   40 ..............................
........................................................................

 iter      E             dE          RMSdq      gap      omega  full diag
   1    -28.1934101 -0.281934E+02  0.236E-02    2.32       0.0  T
   2    -28.1934100  0.842339E-07  0.145E-02    2.32       1.7  T
   3    -28.1934082  0.183148E-05  0.134E-02    2.32       1.8  T
   4    -28.1934105 -0.230780E-05  0.130E-03    2.32      18.7  T
   5    -28.1934105 -0.108145E-07  0.473E-04    2.32      51.3  T
   6    -28.1934105  0.319080E-09  0.328E-04    2.32      74.0  T
     SCC iter.                  ...        0 min,  3.242 sec
     gradient                   ...        0 min,  0.339 sec
 * total energy  :   -27.8729582 Eh     change       -0.9639879E-05 Eh
   gradient norm :     0.0013781 Eh/α   predicted    -0.5366706E-05 ( -44.33%)
   displ. norm   :     0.1186158 α      lambda       -0.8674799E-05
   maximum displ.:     0.0785369 α      in ANC's #2, #1, #23, ...

........................................................................
.............................. CYCLE   41 ..............................
........................................................................

 iter      E             dE          RMSdq      gap      omega  full diag
   1    -28.1929282 -0.281929E+02  0.350E-02    2.32       0.0  T
   2    -28.1929281  0.597424E-07  0.211E-02    2.31       1.1  T
   3    -28.1929241  0.408400E-05  0.185E-02    2.32       1.3  T
   4    -28.1929288 -0.472661E-05  0.198E-03    2.31      12.3  T
   5    -28.1929288 -0.170650E-07  0.800E-04    2.31      30.3  T
   6    -28.1929288  0.308635E-09  0.429E-04    2.31      56.5  T
     SCC iter.                  ...        0 min,  1.994 sec
     gradient                   ...        0 min,  0.348 sec
 * total energy  :   -27.8729634 Eh     change       -0.5206931E-05 Eh
   gradient norm :     0.0012071 Eh/α   predicted    -0.4365957E-05 ( -16.15%)
   displ. norm   :     0.0181260 α      lambda       -0.4707667E-05
   maximum displ.:     0.0116835 α      in ANC's #3, #1, #6, ...

........................................................................
.............................. CYCLE   42 ..............................
........................................................................

 iter      E             dE          RMSdq      gap      omega  full diag
   1    -28.1931873 -0.281932E+02  0.105E-02    2.31       0.0  T
   2    -28.1931873 -0.308322E-07  0.588E-03    2.31       4.1  T
   3    -28.1931871  0.159467E-06  0.378E-03    2.31       6.4  T
   4    -28.1931873 -0.175900E-06  0.782E-04    2.31      31.0  T
   5    -28.1931873 -0.423963E-08  0.385E-04    2.31      62.9  T
     SCC iter.                  ...        0 min,  1.387 sec
     gradient                   ...        0 min,  0.148 sec
 * total energy  :   -27.8729674 Eh     change       -0.3955504E-05 Eh
   gradient norm :     0.0008930 Eh/α   predicted    -0.2354029E-05 ( -40.49%)
   displ. norm   :     0.0200377 α      lambda       -0.3146570E-05
   maximum displ.:     0.0144959 α      in ANC's #3, #6, #2, ...

   *** GEOMETRY OPTIMIZATION CONVERGED AFTER 42 ITERATIONS ***

------------------------------------------------------------------------
 total energy gain   :        -0.0249657 Eh      -15.6662 kcal/mol
 total RMSD          :         0.9710420 a0        0.5139 Å
 total power (kW/mol):        -1.5606556 (step)   -0.3649 (real)
------------------------------------------------------------------------

 ANCopt (total)                0 d,  0 h,  2 min, 59.655 sec
 optimizer setup                ...        0 min,  0.000 sec (  0.000%)
 model hessian                  ...        0 min,  0.004 sec (  0.002%)
 ANC generation                 ...        0 min,  0.001 sec (  0.000%)
 coordinate transformation      ...        0 min,  0.000 sec (  0.000%)
 single point calculation       ...        2 min, 58.423 sec ( 99.314%)
 optimization log               ...        0 min,  0.003 sec (  0.002%)
 hessian update                 ...        0 min,  1.209 sec (  0.673%)
 rational function              ...        0 min,  0.007 sec (  0.004%)

================
 final structure:
================
17
 xtb: 6.7.1 (edcfbbe)
C           -2.88661713643682        0.03083265611470        0.28447463366628
C           -1.41649575433705        0.11303875073382        0.10301652908076
C           -0.70908247921904       -0.39349289174440       -0.92003387878824
C            0.70974793676916       -0.38274172973918       -0.94033388752555
N            1.40790198170097       -0.14811897373956        0.15088463755160
C            2.84957571216645       -0.32667012535376        0.13753312257862
N            0.93167721599447        0.21938206485835        1.30147799590631
S           -0.50870340333178        1.09156346587516        1.34976938700632
O           -0.26308365433183        2.35812935518142        0.65078990306268
H           -3.35518224673998       -0.54215537757606       -0.51347230589312
H           -3.11665380357942       -0.43980571157729        1.24151516921320
H           -3.31385360006139        1.03366320036625        0.30235426610608
H           -1.20558063249955       -0.86031816202261       -1.76195862193003
H            1.24984033570816       -0.67327043366354       -1.82531505169391
H            3.16659202879279       -0.54924905024815        1.15440971921986
H            3.32598564827522        0.60190937760727       -0.17980374375877
H            3.13393184112969       -1.13269643507252       -0.53530788380216

 Bond Distances (Angstroems)
 ---------------------------
C1-C2=1.4836         C1-H10=1.0884        C1-H11=1.0910        C1-H12=1.0902        C2-C1=1.4836         C2-C3=1.3430         
C2-S8=1.8265         C3-C2=1.3430         C3-C4=1.4190         C3-H13=1.0832        C4-C3=1.4190         C4-N5=1.3165         
C4-H14=1.0767        N5-C4=1.3165         N5-C6=1.4527         N5-N7=1.2983         C6-N5=1.4527         C6-H15=1.0882        
C6-H16=1.0908        C6-H17=1.0878        N7-N5=1.2983         N7-S8=1.6846         S8-C2=1.8265         S8-N7=1.6846         
S8-O9=1.4673         O9-S8=1.4673         H10-C1=1.0884        H11-C1=1.0910        H12-C1=1.0902        H13-C3=1.0832        
H14-C4=1.0767        H15-C6=1.0882        H16-C6=1.0908        H17-C6=1.0878        
 C  H  Rav=1.0870 sigma=0.0045  Rmin=1.0767  Rmax=1.0910     8
 C  C  Rav=1.4152 sigma=0.0574  Rmin=1.3430  Rmax=1.4836     3
 N  C  Rav=1.3846 sigma=0.0681  Rmin=1.3165  Rmax=1.4527     2
 N  N  Rav=1.2983 sigma=0.0000  Rmin=1.2983  Rmax=1.2983     1
 S  C  Rav=1.8265 sigma=0.0000  Rmin=1.8265  Rmax=1.8265     1
 S  N  Rav=1.6846 sigma=0.0000  Rmin=1.6846  Rmax=1.6846     1
 S  O  Rav=1.4673 sigma=0.0000  Rmin=1.4673  Rmax=1.4673     1

 selected bond angles (degree)
 --------------------
H10-C1-C2=111.48               H11-C1-C2=109.88               H11-C1-H10=108.98              H12-C1-C2=109.84               
H12-C1-H10=109.12              H12-C1-H11=107.44              C3-C2-C1=126.46                S8-C2-C1=116.02                
S8-C2-C3=117.40                C4-C3-C2=122.32                H13-C3-C2=120.88               H13-C3-C4=116.77               
N5-C4-C3=121.31                H14-C4-C3=120.75               H14-C4-N5=117.60               C6-N5-C4=119.78                
N7-N5-C4=126.19                N7-N5-C6=114.01                H15-C6-N5=107.80               H16-C6-N5=109.36               
H16-C6-H15=108.59              H17-C6-N5=110.87               H17-C6-H15=110.51              H17-C6-H16=109.67              
S8-N7-N5=119.05                N7-S8-C2= 97.36                O9-S8-C2=102.74                O9-S8-N7=106.87                

 selected dihedral angles (degree)
 ---------------------------------
C3-C2-C1-H10=  2.30           C3-C2-C1-H11=123.23           C3-C2-C1-H12=241.22           S8-C2-C1-H10=178.26           
S8-C2-C1-H11=299.19           S8-C2-C1-H12= 57.18           C4-C3-C2-C1=186.53            C4-C3-C2-S8= 10.63            
H13-C3-C2-C1=  4.66           H13-C3-C2-S8=188.75           N5-C4-C3-C2= 15.05            N5-C4-C3-H13=196.84           
H14-C4-C3-C2=188.25           H14-C4-C3-H13= 10.04          C6-N5-C4-C3=171.47            C6-N5-C4-H14=358.07           
N7-N5-C4-C3=352.87            N7-N5-C4-H14=179.46           H15-C6-N5-C4=206.31           H15-C6-N5-N7= 25.07           
H16-C6-N5-C4= 88.43           H16-C6-N5-N7=267.20           H17-C6-N5-C4=327.38           H17-C6-N5-N7=146.15           
S8-N7-N5-C4=332.21            S8-N7-N5-C6=153.53            N7-S8-C2-C1=149.25            N7-S8-C2-C3=325.59            
O9-S8-C2-C1=258.47            O9-S8-C2-C3= 74.81            C2-S8-N7-N5= 42.77            O9-S8-N7-N5=297.02            
           -------------------------------------------------
          |                Final Singlepoint                |
           -------------------------------------------------

          ...................................................
          :                      SETUP                      :
          :.................................................:
          :  # basis functions                  50          :
          :  # atomic orbitals                  49          :
          :  # shells                           27          :
          :  # electrons                        50          :
          :  max. iterations                   250          :
          :  Hamiltonian                  GFN2-xTB          :
          :  restarted?                      false          :
          :  GBSA solvation                  false          :
          :  PC potential                    false          :
          :  electronic temp.          300.0000000     K    :
          :  accuracy                    1.0000000          :
          :  -> integral cutoff          0.2500000E+02      :
          :  -> integral neglect         0.1000000E-07      :
          :  -> SCF convergence          0.1000000E-05 Eh   :
          :  -> wf. convergence          0.1000000E-03 e    :
          :  Broyden damping             0.4000000          :
          :  net charge                          0          :
          :  unpaired electrons                  0          :
          ...................................................

 iter      E             dE          RMSdq      gap      omega  full diag
   1    -28.1931873 -0.281932E+02  0.150E-04    2.31       0.0  T
   2    -28.1931873 -0.508287E-10  0.134E-04    2.31     180.5  T
   3    -28.1931873 -0.257273E-09  0.446E-05    2.31     544.2  T

   *** convergence criteria satisfied after 3 iterations ***

         #    Occupation            Energy/Eh            Energy/eV
      -------------------------------------------------------------
         1        2.0000           -0.7347639             -19.9939
       ...           ...                  ...                  ...
        19        2.0000           -0.4658133             -12.6754
        20        2.0000           -0.4583011             -12.4710
        21        2.0000           -0.4357157             -11.8564
        22        2.0000           -0.4174166             -11.3585
        23        2.0000           -0.3769709             -10.2579
        24        2.0000           -0.3681991             -10.0192
        25        2.0000           -0.3610961              -9.8259 (HOMO)
        26                         -0.2760663              -7.5121 (LUMO)
        27                         -0.1841435              -5.0108
        28                         -0.1778836              -4.8405
        29                         -0.1181128              -3.2140
        30                         -0.0394110              -1.0724
       ...                                ...                  ...
        49                          0.9456124              25.7314
      -------------------------------------------------------------
                  HL-Gap            0.0850298 Eh            2.3138 eV
             Fermi-level           -0.3185812 Eh           -8.6690 eV

 SCC (total)                   0 d,  0 h,  0 min,  2.158 sec
 SCC setup                      ...        0 min,  0.033 sec (  1.532%)
 Dispersion                     ...        0 min,  0.013 sec (  0.581%)
 classical contributions        ...        0 min,  0.016 sec (  0.746%)
 integral evaluation            ...        0 min,  0.001 sec (  0.031%)
 iterations                     ...        0 min,  1.675 sec ( 77.639%)
 molecular gradient             ...        0 min,  0.420 sec ( 19.464%)
 printout                       ...        0 min,  0.000 sec (  0.007%)

         :::::::::::::::::::::::::::::::::::::::::::::::::::::
         ::                     SUMMARY                     ::
         :::::::::::::::::::::::::::::::::::::::::::::::::::::
         :: total energy             -27.872967353844 Eh    ::
         :: gradient norm              0.000892462931 Eh/a0 ::
         :: HOMO-LUMO gap              2.313779707278 eV    ::
         ::.................................................::
         :: SCC energy               -28.193165204203 Eh    ::
         :: -> isotropic ES            0.055397995908 Eh    ::
         :: -> anisotropic ES          0.000019648261 Eh    ::
         :: -> anisotropic XC          0.015811079745 Eh    ::
         :: -> dispersion             -0.015158858886 Eh    ::
         :: repulsion energy           0.320197850359 Eh    ::
         :: add. restraining           0.000000000000 Eh    ::
         :: total charge              -0.000000000000 e     ::
         :::::::::::::::::::::::::::::::::::::::::::::::::::::

           -------------------------------------------------
          |                Property Printout                |
           -------------------------------------------------

    * Orbital Energies and Occupations

         #    Occupation            Energy/Eh            Energy/eV
      -------------------------------------------------------------
         1        2.0000           -0.7347639             -19.9939
       ...           ...                  ...                  ...
        13        2.0000           -0.5088116             -13.8455
        14        2.0000           -0.5062751             -13.7764
        15        2.0000           -0.5030529             -13.6888
        16        2.0000           -0.4910147             -13.3612
        17        2.0000           -0.4864037             -13.2357
        18        2.0000           -0.4723793             -12.8541
        19        2.0000           -0.4658133             -12.6754
        20        2.0000           -0.4583011             -12.4710
        21        2.0000           -0.4357157             -11.8564
        22        2.0000           -0.4174166             -11.3585
        23        2.0000           -0.3769709             -10.2579
        24        2.0000           -0.3681991             -10.0192
        25        2.0000           -0.3610961              -9.8259 (HOMO)
        26                         -0.2760663              -7.5121 (LUMO)
        27                         -0.1841435              -5.0108
        28                         -0.1778836              -4.8405
        29                         -0.1181128              -3.2140
        30                         -0.0394110              -1.0724
        31                          0.0000481               0.0013
        32                          0.0540642               1.4712
        33                          0.0833241               2.2674
        34                          0.1177768               3.2049
        35                          0.1324506               3.6042
        36                          0.1449713               3.9449
       ...                                ...                  ...
        49                          0.9456124              25.7314
      -------------------------------------------------------------
                  HL-Gap            0.0850298 Eh            2.3138 eV
             Fermi-level           -0.3185812 Eh           -8.6690 eV

     #   Z          covCN         q      C6AA      α(0)
     1   6 C        3.774    -0.112    22.665     6.783
     2   6 C        2.940    -0.032    28.790     8.800
     3   6 C        2.948    -0.040    28.999     8.832
     4   6 C        2.865    -0.030    28.751     8.789
     5   7 N        2.902     0.176    18.304     6.354
     6   6 C        3.721    -0.076    22.067     6.709
     7   7 N        1.932    -0.340    29.665     8.076
     8  16 S        2.912     0.475   123.194    18.681
     9   8 O        0.860    -0.519    24.199     6.595
    10   1 H        0.925     0.049     2.332     2.388
    11   1 H        0.924     0.056     2.250     2.346
    12   1 H        0.925     0.063     2.162     2.299
    13   1 H        0.925     0.041     2.441     2.443
    14   1 H        0.926     0.043     2.404     2.425
    15   1 H        0.925     0.095     1.836     2.119
    16   1 H        0.924     0.083     1.948     2.183
    17   1 H        0.925     0.068     2.105     2.269

 Mol. C6AA /au·bohr⁶  :       3963.791543
 Mol. C8AA /au·bohr⁸  :     104438.314060
 Mol. α(0) /au        :         98.092148


Wiberg/Mayer (AO) data.
largest (>0.10) Wiberg bond orders for each atom

 ---------------------------------------------------------------------------
     #   Z sym  total        # sym  WBO       # sym  WBO       # sym  WBO
 ---------------------------------------------------------------------------
     1   6 C    3.995 --     2 C    1.044    10 H    0.980    11 H    0.964
                            12 H    0.963
     2   6 C    3.979 --     3 C    1.695     1 C    1.044     8 S    0.932
                             7 N    0.130
     3   6 C    3.990 --     2 C    1.695     4 C    1.222    13 H    0.953
     4   6 C    3.956 --     5 N    1.401     3 C    1.222    14 H    0.964
                             7 N    0.256
     5   7 N    3.777 --     4 C    1.401     7 N    1.279     6 C    0.977
     6   6 C    3.959 --    17 H    0.978     5 N    0.977    15 H    0.974
                            16 H    0.966
     7   7 N    2.957 --     5 N    1.279     8 S    1.126     4 C    0.256
                             2 C    0.130
     8  16 S    3.962 --     9 O    1.783     7 N    1.126     2 C    0.932
     9   8 O    2.013 --     8 S    1.783
    10   1 H    0.998 --     1 C    0.980
    11   1 H    0.996 --     1 C    0.964
    12   1 H    0.995 --     1 C    0.963
    13   1 H    0.998 --     3 C    0.953
    14   1 H    0.998 --     4 C    0.964
    15   1 H    0.991 --     6 C    0.974
    16   1 H    0.993 --     6 C    0.966
    17   1 H    0.995 --     6 C    0.978
 ---------------------------------------------------------------------------

Topologies differ in total number of bonds
Writing topology from bond orders to xtbtopo.mol

molecular dipole:
                 x           y           z       tot (Debye)
 q only:        0.437      -1.680      -0.231
   full:        0.409      -1.765      -0.800       5.034
molecular quadrupole (traceless):
                xx          xy          yy          xz          yz          zz
 q only:       13.260      -1.347     -13.557      -3.090      -0.699       0.297
  q+dip:       13.862      -0.870     -13.477      -3.965      -0.605      -0.385
   full:       14.061      -0.878     -12.815      -3.696      -1.069      -1.246

           -------------------------------------------------
          |                Geometry Summary                 |
           -------------------------------------------------

      molecular mass/u    :      144.1948042
   center of mass at/Å    :       -0.0368720       0.4135144       0.3874085
  moments of inertia/u·Å² :        0.2033838E+03   0.4004064E+03   0.5210152E+03
rotational constants/cm⁻¹ :        0.8288583E-01   0.4210131E-01   0.3235536E-01

 * 16 selected distances

     #   Z          #   Z                                           value/Å
     1   6 C        2   6 C                                       1.4835573
     2   6 C        3   6 C                                       1.3429968
     3   6 C        4   6 C                                       1.4190165
     4   6 C        5   7 N                                       1.3165201
     5   7 N        6   6 C                                       1.4527499
     5   7 N        7   7 N                                       1.2983499
     7   7 N        8  16 S                                       1.6845561 (max)
     8  16 S        9   8 O                                       1.4673415
     1   6 C       10   1 H                                       1.0883878
     1   6 C       11   1 H                                       1.0910289
     1   6 C       12   1 H                                       1.0901926
     3   6 C       13   1 H                                       1.0831776
     4   6 C       14   1 H                                       1.0767073 (min)
     6   6 C       15   1 H                                       1.0881539
     6   6 C       16   1 H                                       1.0908388
     6   6 C       17   1 H                                       1.0877739

 * 6 distinct bonds (by element types)

   Z      Z             #   av. dist./Å        max./Å        min./Å
   1 H    6 C           8     1.0870326     1.0910289     1.0767073
   6 C    6 C           3     1.4151902     1.4835573     1.3429968
   6 C    7 N           2     1.3846350     1.4527499     1.3165201
   7 N    7 N           1     1.2983499     1.2983499     1.2983499
   7 N   16 S           1     1.6845561     1.6845561     1.6845561
   8 O   16 S           1     1.4673415     1.4673415     1.4673415


optimized geometry written to: xtbopt.xyz


           -------------------------------------------------
          | TOTAL ENERGY              -27.872967353844 Eh   |
          | GRADIENT NORM               0.000892462931 Eh/α |
          | HOMO-LUMO GAP               2.313779707278 eV   |
           -------------------------------------------------

------------------------------------------------------------------------
 * finished run on 2026/08/20 at 02:31:57.203     
------------------------------------------------------------------------
 total:
 * wall-time:     0 d,  0 h,  3 min,  9.042 sec
 *  cpu-time:     0 d,  0 h,  3 min, 43.503 sec
 * ratio c/w:     1.182 speedup
 SCF:
 * wall-time:     0 d,  0 h,  0 min,  6.968 sec
 *  cpu-time:     0 d,  0 h,  0 min,  8.838 sec
 * ratio c/w:     1.268 speedup
 ANC optimizer:
 * wall-time:     0 d,  0 h,  3 min,  1.833 sec
 *  cpu-time:     0 d,  0 h,  3 min, 34.395 sec
 * ratio c/w:     1.179 speedup

