17
Properties=species:S:1:pos:R:3 energy:=T -27.872967353844=T gnorm:=T 0.000892462931=T xtb:=T 6.7.1=T (edcfbbe)=T pbc="F F F"
C       -2.35069268       0.16215342       0.50559645
C       -1.00085068      -0.15505566      -0.03238637
C       -0.67856330      -0.81225460      -1.23471566
C        0.69513759      -0.85085795      -1.25617463
N        1.12192690      -0.24875530      -0.12806171
C        2.47428821      -0.04161662       0.29932193
N        0.10344581       0.17435406       0.61665343
S       -2.04922001       3.28113719       3.86011146
O       -2.56211873       4.17605243       4.90355704
H       -2.89169774       0.81008955      -0.18342158
H       -2.93056636      -0.75061255       0.63873861
H       -2.24944022       0.66471668       1.46331850
H       -1.35670011      -1.19676372      -1.96885023
H        1.38146866      -1.25351396      -1.97428477
H        2.44093182       0.44636271       1.27168562
H        3.00179767      -0.99420278       0.38902274
H        3.01130148       0.59626388      -0.40700162
