      -----------------------------------------------------------      
     |                   =====================                   |     
     |                           x T B                           |     
     |                   =====================                   |     
     |                         S. Grimme                         |     
     |          Mulliken Center for Theoretical Chemistry        |     
     |                    University of Bonn                     |     
      -----------------------------------------------------------      

   * xtb version 6.7.1 (edcfbbe) compiled by 'conda@3ef47c1a292c' on 2024-11-25

   xtb is free software: you can redistribute it and/or modify it under
   the terms of the GNU Lesser General Public License as published by
   the Free Software Foundation, either version 3 of the License, or
   (at your option) any later version.
   
   xtb is distributed in the hope that it will be useful,
   but WITHOUT ANY WARRANTY; without even the implied warranty of
   MERCHANTABILITY or FITNESS FOR A PARTICULAR PURPOSE.  See the
   GNU Lesser General Public License for more details.
   
   Cite this work as:
   * C. Bannwarth, E. Caldeweyher, S. Ehlert, A. Hansen, P. Pracht,
     J. Seibert, S. Spicher, S. Grimme, WIREs Comput. Mol. Sci., 2020, 11,
     e01493. DOI: 10.1002/wcms.1493
   
   for GFN2-xTB:
   * C. Bannwarth, S. Ehlert and S. Grimme., J. Chem. Theory Comput., 2019,
     15, 1652-1671. DOI: 10.1021/acs.jctc.8b01176
   for GFN1-xTB:
   * S. Grimme, C. Bannwarth, P. Shushkov, J. Chem. Theory Comput., 2017,
     13, 1989-2009. DOI: 10.1021/acs.jctc.7b00118
   for GFN0-xTB:
   * P. Pracht, E. Caldeweyher, S. Ehlert, S. Grimme, ChemRxiv, 2019, preprint.
     DOI: 10.26434/chemrxiv.8326202.v1
   for GFN-FF:
   * S. Spicher and S. Grimme, Angew. Chem. Int. Ed., 2020, 59, 15665-15673.
     DOI: 10.1002/anie.202004239
   
   for ALPB and GBSA implicit solvation:
   * S. Ehlert, M. Stahn, S. Spicher, S. Grimme, J. Chem. Theory Comput.,
     2021, 17, 4250-4261. DOI: 10.1021/acs.jctc.1c00471
   
   for ddCOSMO and CPCM-X implicit solvation:
   * M. Stahn, S. Ehlert, S. Grimme, J. Phys. Chem. A,
     2023, XX, XXXX-XXXX. DOI: 10.1021/acs.jpca.3c04382
   
   for DFT-D4:
   * E. Caldeweyher, C. Bannwarth and S. Grimme, J. Chem. Phys., 2017,
     147, 034112. DOI: 10.1063/1.4993215
   * E. Caldeweyher, S. Ehlert, A. Hansen, H. Neugebauer, S. Spicher,
     C. Bannwarth and S. Grimme, J. Chem. Phys., 2019, 150, 154122.
     DOI: 10.1063/1.5090222
   * E. Caldeweyher, J.-M. Mewes, S. Ehlert and S. Grimme, Phys. Chem. Chem. Phys.
     2020, 22, 8499-8512. DOI: 10.1039/D0CP00502A
   
   for sTDA-xTB:
   * S. Grimme and C. Bannwarth, J. Chem. Phys., 2016, 145, 054103.
     DOI: 10.1063/1.4959605
   
   in the mass-spec context:
   * V. Asgeirsson, C. Bauer and S. Grimme, Chem. Sci., 2017, 8, 4879.
     DOI: 10.1039/c7sc00601b
   * J. Koopman and S. Grimme, ACS Omega 2019, 4, 12, 15120-15133.
     DOI: 10.1021/acsomega.9b02011
   
   for metadynamics refer to:
   * S. Grimme, J. Chem. Theory Comput., 2019, 155, 2847-2862
     DOI: 10.1021/acs.jctc.9b00143
   
   for SPH calculations refer to:
   * S. Spicher and S. Grimme, J. Chem. Theory Comput., 2021, 17, 1701-1714
     DOI: 10.1021/acs.jctc.0c01306
   
   for ONIOM refer to:
   * C. Plett, A. Katbashev, S. Ehlert, S. Grimme, M. Bursch,
     Phys. Chem. Chem. Phys., 2023, 25, 17860-17868. DOI: 10.1039/D3CP02178E
   
   for DIPRO refer to:
   * J. Kohn, N. Gildemeister, S. Grimme, D. Fazzi, A. Hansen,
     J. Chem. Phys., 2023, just accepted.
   
   for PTB refer to:
   * S. Grimme, M. Mueller, A. Hansen, J. Chem. Phys., 2023, 158, 124111.
     DOI: 10.1063/5.0137838
   
   with help from (in alphabetical order)
   P. Atkinson, C. Bannwarth, F. Bohle, G. Brandenburg, E. Caldeweyher
   M. Checinski, S. Dohm, S. Ehlert, S. Ehrlich, I. Gerasimov, C. Hölzer
   A. Katbashev, J. Kohn, J. Koopman, C. Lavigne, S. Lehtola, F. März, M. Müller,
   F. Musil, H. Neugebauer, J. Pisarek, C. Plett, P. Pracht, F. Pultar,
   J. Seibert, P. Shushkov, S. Spicher, M. Stahn, M. Steiner, T. Strunk,
   J. Stückrath, T. Rose, and J. Unsleber
   
 * started run on 2026/08/20 at 02:39:20.824     
   ID    Z sym.   atoms
    1    6 C      1-4, 6
    2    7 N      5, 7
    3   16 S      8
    4    8 O      9
    5    1 H      10-17
constraining bond 2 7 to    1.9000000 Å, actual value:    2.6384724 Å
constraining bond 2 8 to    2.1000000 Å, actual value:    1.8264695 Å
constraining bond 7 8 to    2.1000000 Å, actual value:    1.6845561 Å
constraining bond 8 9 to    1.4800000 Å, actual value:    1.4673415 Å

           -------------------------------------------------
          |                Calculation Setup                |
           -------------------------------------------------

          program call               : /h/399/yunhengzou/micromamba/envs/el-agente/bin/xtb pathway_B_substrate.xyz --opt --gfn 2 -P 4 --chrg 0 --uhf 0 --input detailed_input.inp
          coordinate file            : pathway_B_substrate.xyz
          omp threads                :                     4


           -------------------------------------------------
          |                 G F N 2 - x T B                 |
           -------------------------------------------------

        Reference                      10.1021/acs.jctc.8b01176
      * Hamiltonian:
        H0-scaling (s, p, d)           1.850000    2.230000    2.230000
        zeta-weighting                 0.500000
      * Dispersion:
        s8                             2.700000
        a1                             0.520000
        a2                             5.000000
        s9                             5.000000
      * Repulsion:
        kExp                           1.500000    1.000000
        rExp                           1.000000
      * Coulomb:
        alpha                          2.000000
        third order                    shell-resolved
        anisotropic                    true
        a3                             3.000000
        a5                             4.000000
        cn-shift                       1.200000
        cn-exp                         4.000000
        max-rad                        5.000000


          ...................................................
          :                      SETUP                      :
          :.................................................:
          :  # basis functions                  50          :
          :  # atomic orbitals                  49          :
          :  # shells                           27          :
          :  # electrons                        50          :
          :  max. iterations                   250          :
          :  Hamiltonian                  GFN2-xTB          :
          :  restarted?                      false          :
          :  GBSA solvation                  false          :
          :  PC potential                    false          :
          :  electronic temp.          300.0000000     K    :
          :  accuracy                    1.0000000          :
          :  -> integral cutoff          0.2500000E+02      :
          :  -> integral neglect         0.1000000E-07      :
          :  -> SCF convergence          0.1000000E-05 Eh   :
          :  -> wf. convergence          0.1000000E-03 e    :
          :  Broyden damping             0.4000000          :
          :  net charge                          0          :
          :  unpaired electrons                  0          :
          ...................................................

 iter      E             dE          RMSdq      gap      omega  full diag
   1    -28.1036384 -0.281036E+02  0.464E+00    2.77       0.0  T
   2    -28.1799669 -0.763286E-01  0.308E+00    2.31       1.0  T
   3    -28.1737469  0.622003E-02  0.170E+00    2.31       1.0  T
   4    -28.1664611  0.728586E-02  0.153E+00    2.43       1.0  T
   5    -28.1927845 -0.263235E-01  0.286E-01    2.33       1.0  T
   6    -28.1929400 -0.155486E-03  0.146E-01    2.31       1.0  T
   7    -28.1931485 -0.208488E-03  0.683E-02    2.31       1.0  T
   8    -28.1931858 -0.373380E-04  0.262E-02    2.31       1.0  T
   9    -28.1931869 -0.104528E-05  0.155E-02    2.31       1.6  T
  10    -28.1931872 -0.334123E-06  0.434E-03    2.31       5.6  T
  11    -28.1931873 -0.100895E-06  0.195E-03    2.31      12.5  T
  12    -28.1931873 -0.137008E-08  0.591E-04    2.31      41.0  T
  13    -28.1931873 -0.146187E-08  0.155E-04    2.31     156.7  T

   *** convergence criteria satisfied after 13 iterations ***

         #    Occupation            Energy/Eh            Energy/eV
      -------------------------------------------------------------
         1        2.0000           -0.7347644             -19.9940
       ...           ...                  ...                  ...
        19        2.0000           -0.4658125             -12.6754
        20        2.0000           -0.4583002             -12.4710
        21        2.0000           -0.4357155             -11.8564
        22        2.0000           -0.4174160             -11.3585
        23        2.0000           -0.3769708             -10.2579
        24        2.0000           -0.3681985             -10.0192
        25        2.0000           -0.3610962              -9.8259 (HOMO)
        26                         -0.2760662              -7.5121 (LUMO)
        27                         -0.1841433              -5.0108
        28                         -0.1778831              -4.8404
        29                         -0.1181122              -3.2140
        30                         -0.0394109              -1.0724
       ...                                ...                  ...
        49                          0.9456132              25.7314
      -------------------------------------------------------------
                  HL-Gap            0.0850300 Eh            2.3138 eV
             Fermi-level           -0.3185812 Eh           -8.6690 eV

 SCC (total)                   0 d,  0 h,  0 min,  2.047 sec
 SCC setup                      ...        0 min,  0.021 sec (  1.027%)
 Dispersion                     ...        0 min,  0.041 sec (  1.979%)
 classical contributions        ...        0 min,  0.013 sec (  0.624%)
 integral evaluation            ...        0 min,  0.049 sec (  2.373%)
 iterations                     ...        0 min,  1.784 sec ( 87.152%)
 molecular gradient             ...        0 min,  0.140 sec (  6.825%)
 printout                       ...        0 min,  0.000 sec (  0.018%)

         :::::::::::::::::::::::::::::::::::::::::::::::::::::
         ::                     SUMMARY                     ::
         :::::::::::::::::::::::::::::::::::::::::::::::::::::
         :: total energy             -25.890884092339 Eh    ::
         :: gradient norm              2.356440126401 Eh/a0 ::
         :: HOMO-LUMO gap              2.313783389774 eV    ::
         ::.................................................::
         :: SCC energy               -28.193165204109 Eh    ::
         :: -> isotropic ES            0.055398013963 Eh    ::
         :: -> anisotropic ES          0.000019621571 Eh    ::
         :: -> anisotropic XC          0.015811156398 Eh    ::
         :: -> dispersion             -0.015158868548 Eh    ::
         :: repulsion energy           0.320197850359 Eh    ::
         :: add. restraining           1.982083261411 Eh    ::
         :: total charge               0.000000000000 e     ::
         :::::::::::::::::::::::::::::::::::::::::::::::::::::

      ----------------------------------------------------------- 
     |                   =====================                   |
     |                        A N C O P T                        |
     |                   =====================                   |
     |               Approximate Normal Coordinate               |
     |                Rational Function Optimizer                |
      ----------------------------------------------------------- 
      ----------------------------------------------------------- 
     |                   =====================                   |
     |                        A N C O P T                        |
     |                   =====================                   |
     |               Approximate Normal Coordinate               |
     |                Rational Function Optimizer                |
      ----------------------------------------------------------- 

          ...................................................
          :                      SETUP                      :
          :.................................................:
          :   optimization level            normal          :
          :   max. optcycles                   200          :
          :   ANC micro-cycles                  20          :
          :   degrees of freedom                45          :
          :.................................................:
          :   RF solver                   davidson          :
          :   write xtbopt.log                true          :
          :   linear?                        false          :
          :   energy convergence         0.5000000E-05 Eh   :
          :   grad. convergence          0.1000000E-02 Eh/α :
          :   maxmium RF displ.          1.0000000          :
          :   Hlow (freq-cutoff)         0.1000000E-01      :
          :   Hmax (freq-cutoff)         5.0000000          :
          :   S6 in model hess.         20.0000000          :
          ...................................................

generating ANC from exact Hessian ...
Using Lindh-Hessian (1995)
 Shifting diagonal of input Hessian by   0.37487842099107577     
 Lowest  eigenvalues of input Hessian
    0.010000    0.000000    0.000000    0.000000    0.000000    0.000000
    0.000000    0.380698    0.384005    0.388522    0.389466    0.393020
    0.406924    0.416464    0.423821    0.428392    0.438516    0.443426
 Highest eigenvalues
    2.182714    2.477376    2.619312    4.816923    4.937936    6.135998


........................................................................
.............................. CYCLE    1 ..............................
........................................................................

 iter      E             dE          RMSdq      gap      omega  full diag
   1    -28.1931873 -0.281932E+02  0.585E-05    2.31       0.0  T
   2    -28.1931873 -0.678213E-11  0.343E-05    2.31     706.7  T
   3    -28.1931873  0.945022E-12  0.247E-05    2.31     982.1  T
     SCC iter.                  ...        0 min,  0.360 sec
     gradient                   ...        0 min,  0.247 sec
 * total energy  :   -25.8908841 Eh     change       -0.9307399E-10 Eh
   gradient norm :     2.3563221 Eh/α   predicted     0.0000000E+00 (-100.00%)
   displ. norm   :     0.7066713 α      lambda       -0.1596217E+01
   maximum displ.:     0.4715844 α      in ANC's #31, #38, #41, ...

........................................................................
.............................. CYCLE    2 ..............................
........................................................................

 iter      E             dE          RMSdq      gap      omega  full diag
   1    -28.1434297 -0.281434E+02  0.155E+00    2.01       0.0  T
   2    -28.1479842 -0.455448E-02  0.941E-01    1.90       1.0  T
   3    -28.1484355 -0.451351E-03  0.473E-01    1.93       1.0  T
   4    -28.1487285 -0.292994E-03  0.227E-01    1.93       1.0  T
   5    -28.1491585 -0.429979E-03  0.910E-02    1.91       1.0  T
   6    -28.1491648 -0.634642E-05  0.504E-02    1.93       1.0  T
   7    -28.1491960 -0.311770E-04  0.140E-02    1.92       1.7  T
   8    -28.1491969 -0.882428E-06  0.688E-03    1.92       3.5  T
   9    -28.1491970 -0.111207E-06  0.169E-03    1.92      14.4  T
  10    -28.1491970 -0.105391E-07  0.822E-04    1.92      29.5  T
  11    -28.1491970 -0.855785E-09  0.279E-04    1.92      86.8  T
     SCC iter.                  ...        0 min,  1.414 sec
     gradient                   ...        0 min,  0.096 sec
 * total energy  :   -27.1754589 Eh     change       -0.1284575E+01 Eh
   gradient norm :     1.3401115 Eh/α   predicted    -0.1196672E+01 (  -6.84%)
   displ. norm   :     0.6465368 α      lambda       -0.8315535E+00
   maximum displ.:     0.4394723 α      in ANC's #31, #38, #28, ...

........................................................................
.............................. CYCLE    3 ..............................
........................................................................

 iter      E             dE          RMSdq      gap      omega  full diag
   1    -28.0376204 -0.280376E+02  0.289E+00    1.08       0.0  T
   2    -28.0244489  0.131715E-01  0.193E+00    1.07       1.0  T
   3    -28.0592563 -0.348074E-01  0.117E+00    1.05       1.0  T
   4    -28.0664537 -0.719738E-02  0.220E-01    1.04       1.0  T
   5    -28.0666790 -0.225256E-03  0.121E-01    1.02       1.0  T
   6    -28.0667539 -0.748961E-04  0.769E-02    1.03       1.0  T
   7    -28.0667616 -0.771765E-05  0.488E-02    1.03       1.0  T
   8    -28.0667913 -0.297450E-04  0.111E-02    1.03       2.2  T
   9    -28.0667922 -0.863005E-06  0.407E-03    1.03       6.0  T
  10    -28.0667922 -0.280502E-07  0.264E-03    1.03       9.2  T
  11    -28.0667923 -0.286456E-07  0.928E-04    1.03      26.1  T
  12    -28.0667923 -0.245895E-08  0.353E-04    1.03      68.8  T
     SCC iter.                  ...        0 min,  1.484 sec
     gradient                   ...        0 min,  0.153 sec
 * total energy  :   -27.6910461 Eh     change       -0.5155872E+00 Eh
   gradient norm :     0.3920304 Eh/α   predicted    -0.5895755E+00 (  14.35%)
   displ. norm   :     0.6292455 α      lambda       -0.1243960E+00
   maximum displ.:     0.5714882 α      in ANC's #1, #31, #27, ...

........................................................................
.............................. CYCLE    4 ..............................
........................................................................

 iter      E             dE          RMSdq      gap      omega  full diag
   1    -28.0428434 -0.280428E+02  0.139E+00    1.17       0.0  T
   2    -28.0480170 -0.517363E-02  0.532E-01    1.11       1.0  T
   3    -28.0479531  0.638894E-04  0.423E-01    1.16       1.0  T
   4    -28.0483208 -0.367680E-03  0.180E-01    1.12       1.0  T
   5    -28.0485597 -0.238871E-03  0.586E-02    1.13       1.0  T
   6    -28.0485661 -0.637402E-05  0.271E-02    1.13       1.0  T
   7    -28.0485690 -0.294295E-05  0.121E-02    1.13       2.0  T
   8    -28.0485691 -0.762959E-07  0.859E-03    1.13       2.8  T
   9    -28.0485697 -0.643471E-06  0.420E-03    1.13       5.8  T
  10    -28.0485698 -0.120980E-06  0.155E-03    1.13      15.6  T
  11    -28.0485699 -0.192932E-07  0.557E-04    1.13      43.5  T
  12    -28.0485699 -0.188991E-08  0.238E-04    1.13     102.1  T
     SCC iter.                  ...        0 min,  1.351 sec
     gradient                   ...        0 min,  0.194 sec
 * total energy  :   -27.7497435 Eh     change       -0.5869741E-01 Eh
   gradient norm :     0.3300777 Eh/α   predicted    -0.8682529E-01 (  47.92%)
   displ. norm   :     0.4329980 α      lambda       -0.4331416E-01
   maximum displ.:     0.3631228 α      in ANC's #1, #23, #45, ...

........................................................................
.............................. CYCLE    5 ..............................
........................................................................

 iter      E             dE          RMSdq      gap      omega  full diag
   1    -28.0374791 -0.280375E+02  0.103E+00    1.29       0.0  T
   2    -28.0381468 -0.667690E-03  0.829E-01    1.10       1.0  T
   3    -28.0429678 -0.482092E-02  0.274E-01    1.20       1.0  T
   4    -28.0429583  0.943669E-05  0.136E-01    1.17       1.0  T
   5    -28.0430895 -0.131147E-03  0.860E-02    1.18       1.0  T
   6    -28.0431456 -0.561017E-04  0.257E-02    1.18       1.0  T
   7    -28.0431481 -0.249332E-05  0.775E-03    1.18       3.1  T
   8    -28.0431485 -0.417023E-06  0.390E-03    1.18       6.2  T
   9    -28.0431485 -0.483601E-07  0.196E-03    1.18      12.4  T
  10    -28.0431485 -0.194787E-07  0.590E-04    1.18      41.1  T
  11    -28.0431485 -0.219801E-08  0.303E-04    1.18      80.0  T
     SCC iter.                  ...        0 min,  1.182 sec
     gradient                   ...        0 min,  0.170 sec
 * total energy  :   -27.7515940 Eh     change       -0.1850501E-02 Eh
   gradient norm :     0.2895609 Eh/α   predicted    -0.2571748E-01 (1289.76%)
   displ. norm   :     0.4174191 α      lambda       -0.3876812E-01
   maximum displ.:     0.3816733 α      in ANC's #1, #31, #44, ...

........................................................................
.............................. CYCLE    6 ..............................
........................................................................

 iter      E             dE          RMSdq      gap      omega  full diag
   1    -28.0562278 -0.280562E+02  0.932E-01    1.29       0.0  T
   2    -28.0567257 -0.497855E-03  0.508E-01    1.42       1.0  T
   3    -28.0581437 -0.141806E-02  0.310E-01    1.34       1.0  T
   4    -28.0585757 -0.431937E-03  0.843E-02    1.37       1.0  T
   5    -28.0585924 -0.167221E-04  0.494E-02    1.37       1.0  T
   6    -28.0586037 -0.113697E-04  0.274E-02    1.37       1.0  T
   7    -28.0586099 -0.610635E-05  0.111E-02    1.37       2.2  T
   8    -28.0586115 -0.166897E-05  0.456E-03    1.37       5.3  T
   9    -28.0586116 -0.368214E-07  0.168E-03    1.37      14.4  T
  10    -28.0586116 -0.189375E-07  0.670E-04    1.37      36.2  T
  11    -28.0586116 -0.135413E-08  0.247E-04    1.37      98.0  T
     SCC iter.                  ...        0 min,  2.094 sec
     gradient                   ...        0 min,  0.151 sec
 * total energy  :   -27.7763648 Eh     change       -0.2477073E-01 Eh
   gradient norm :     0.1260646 Eh/α   predicted    -0.2276149E-01 (  -8.11%)
   displ. norm   :     0.3737863 α      lambda       -0.1714841E-01
   maximum displ.:     0.3282588 α      in ANC's #1, #8, #12, ...

........................................................................
.............................. CYCLE    7 ..............................
........................................................................

 iter      E             dE          RMSdq      gap      omega  full diag
   1    -28.0617790 -0.280618E+02  0.483E-01    1.47       0.0  T
   2    -28.0621923 -0.413311E-03  0.282E-01    1.50       1.0  T
   3    -28.0621841  0.824840E-05  0.168E-01    1.47       1.0  T
   4    -28.0623294 -0.145349E-03  0.966E-02    1.48       1.0  T
   5    -28.0623772 -0.477666E-04  0.429E-02    1.49       1.0  T
   6    -28.0623907 -0.135395E-04  0.193E-02    1.48       1.3  T
   7    -28.0623929 -0.213710E-05  0.881E-03    1.48       2.8  T
   8    -28.0623936 -0.766390E-06  0.347E-03    1.48       7.0  T
   9    -28.0623937 -0.449132E-07  0.184E-03    1.48      13.2  T
  10    -28.0623937 -0.145978E-07  0.552E-04    1.48      44.0  T
  11    -28.0623937 -0.253448E-08  0.233E-04    1.48     103.9  T
     SCC iter.                  ...        0 min,  1.660 sec
     gradient                   ...        0 min,  0.188 sec
 * total energy  :   -27.7860821 Eh     change       -0.9717368E-02 Eh
   gradient norm :     0.1162053 Eh/α   predicted    -0.9772147E-02 (   0.56%)
   displ. norm   :     0.2019841 α      lambda       -0.8975172E-02
   maximum displ.:     0.1027107 α      in ANC's #8, #11, #12, ...

........................................................................
.............................. CYCLE    8 ..............................
........................................................................

 iter      E             dE          RMSdq      gap      omega  full diag
   1    -28.0736726 -0.280737E+02  0.186E-01    1.59       0.0  T
   2    -28.0736679  0.472649E-05  0.145E-01    1.57       1.0  T
   3    -28.0736955 -0.276551E-04  0.851E-02    1.59       1.0  T
   4    -28.0737701 -0.745855E-04  0.305E-02    1.58       1.0  T
   5    -28.0737781 -0.797726E-05  0.149E-02    1.58       1.6  T
   6    -28.0737797 -0.165131E-05  0.439E-03    1.58       5.5  T
   7    -28.0737798 -0.579688E-07  0.173E-03    1.58      14.0  T
   8    -28.0737798 -0.150372E-07  0.835E-04    1.58      29.0  T
   9    -28.0737798 -0.251802E-08  0.284E-04    1.58      85.4  T
     SCC iter.                  ...        0 min,  1.111 sec
     gradient                   ...        0 min,  0.002 sec
 * total energy  :   -27.7933463 Eh     change       -0.7264197E-02 Eh
   gradient norm :     0.0732817 Eh/α   predicted    -0.4670665E-02 ( -35.70%)
   displ. norm   :     0.3416189 α      lambda       -0.1105982E-01
   maximum displ.:     0.1943252 α      in ANC's #8, #14, #12, ...

........................................................................
.............................. CYCLE    9 ..............................
........................................................................

 iter      E             dE          RMSdq      gap      omega  full diag
   1    -28.0906316 -0.280906E+02  0.312E-01    1.72       0.0  T
   2    -28.0906363 -0.475984E-05  0.251E-01    1.67       1.0  T
   3    -28.0909215 -0.285131E-03  0.125E-01    1.70       1.0  T
   4    -28.0909280 -0.657985E-05  0.576E-02    1.69       1.0  T
   5    -28.0909747 -0.467119E-04  0.219E-02    1.69       1.1  T
   6    -28.0909776 -0.286500E-05  0.518E-03    1.69       4.7  T
   7    -28.0909777 -0.453446E-07  0.229E-03    1.69      10.6  T
   8    -28.0909777 -0.175746E-07  0.101E-03    1.69      24.1  T
   9    -28.0909777 -0.316619E-08  0.325E-04    1.69      74.7  T
  10    -28.0909777 -0.212740E-09  0.176E-04    1.69     137.9  T
     SCC iter.                  ...        0 min,  0.920 sec
     gradient                   ...        0 min,  0.044 sec
 * total energy  :   -27.8003356 Eh     change       -0.6989295E-02 Eh
   gradient norm :     0.0402823 Eh/α   predicted    -0.6175256E-02 ( -11.65%)
   displ. norm   :     0.1887105 α      lambda       -0.3340414E-02
   maximum displ.:     0.1108430 α      in ANC's #8, #5, #1, ...

........................................................................
.............................. CYCLE   10 ..............................
........................................................................

 iter      E             dE          RMSdq      gap      omega  full diag
   1    -28.0984613 -0.280985E+02  0.173E-01    1.73       0.0  T
   2    -28.0984959 -0.345445E-04  0.115E-01    1.71       1.0  T
   3    -28.0985267 -0.308374E-04  0.655E-02    1.72       1.0  T
   4    -28.0985378 -0.111282E-04  0.199E-02    1.72       1.2  T
   5    -28.0985399 -0.209091E-05  0.997E-03    1.72       2.4  T
   6    -28.0985412 -0.122504E-05  0.391E-03    1.72       6.2  T
   7    -28.0985412 -0.558886E-07  0.146E-03    1.72      16.6  T
   8    -28.0985412 -0.737486E-08  0.788E-04    1.72      30.8  T
   9    -28.0985412 -0.233646E-08  0.204E-04    1.72     118.9  T
     SCC iter.                  ...        0 min,  0.699 sec
     gradient                   ...        0 min,  0.002 sec
 * total energy  :   -27.8029525 Eh     change       -0.2616918E-02 Eh
   gradient norm :     0.0348912 Eh/α   predicted    -0.1729689E-02 ( -33.90%)
   displ. norm   :     0.2662845 α      lambda       -0.4603015E-02
   maximum displ.:     0.1499186 α      in ANC's #8, #5, #1, ...

........................................................................
.............................. CYCLE   11 ..............................
........................................................................

 iter      E             dE          RMSdq      gap      omega  full diag
   1    -28.1067650 -0.281068E+02  0.258E-01    1.75       0.0  T
   2    -28.1068483 -0.832629E-04  0.167E-01    1.73       1.0  T
   3    -28.1068878 -0.395661E-04  0.104E-01    1.74       1.0  T
   4    -28.1069260 -0.381514E-04  0.336E-02    1.74       1.0  T
   5    -28.1069345 -0.848840E-05  0.161E-02    1.73       1.5  T
   6    -28.1069375 -0.298579E-05  0.479E-03    1.74       5.1  T
   7    -28.1069375 -0.279054E-07  0.203E-03    1.74      11.9  T
   8    -28.1069375 -0.379138E-07  0.994E-04    1.74      24.4  T
   9    -28.1069375 -0.287895E-08  0.260E-04    1.74      93.1  T
     SCC iter.                  ...        0 min,  0.639 sec
     gradient                   ...        0 min,  0.166 sec
 * total energy  :   -27.8061136 Eh     change       -0.3161027E-02 Eh
   gradient norm :     0.0296713 Eh/α   predicted    -0.2464715E-02 ( -22.03%)
   displ. norm   :     0.2190230 α      lambda       -0.2461094E-02
   maximum displ.:     0.1043674 α      in ANC's #8, #1, #5, ...

........................................................................
.............................. CYCLE   12 ..............................
........................................................................

 iter      E             dE          RMSdq      gap      omega  full diag
   1    -28.1084298 -0.281084E+02  0.160E-01    1.77       0.0  T
   2    -28.1084352 -0.546597E-05  0.962E-02    1.76       1.0  T
   3    -28.1083858  0.494094E-04  0.735E-02    1.77       1.0  T
   4    -28.1084491 -0.632860E-04  0.129E-02    1.76       1.9  T
   5    -28.1084506 -0.150273E-05  0.698E-03    1.76       3.5  T
   6    -28.1084510 -0.384533E-06  0.281E-03    1.76       8.6  T
   7    -28.1084510 -0.832438E-08  0.119E-03    1.76      20.3  T
   8    -28.1084510 -0.108448E-07  0.600E-04    1.76      40.4  T
   9    -28.1084510 -0.144740E-08  0.170E-04    1.76     143.0  T
     SCC iter.                  ...        0 min,  1.641 sec
     gradient                   ...        0 min,  0.139 sec
 * total energy  :   -27.8079017 Eh     change       -0.1788126E-02 Eh
   gradient norm :     0.0401580 Eh/α   predicted    -0.1289578E-02 ( -27.88%)
   displ. norm   :     0.2286808 α      lambda       -0.2626548E-02
   maximum displ.:     0.1067427 α      in ANC's #5, #8, #2, ...

........................................................................
.............................. CYCLE   13 ..............................
........................................................................

 iter      E             dE          RMSdq      gap      omega  full diag
   1    -28.1089737 -0.281090E+02  0.173E-01    1.80       0.0  T
   2    -28.1089683  0.532589E-05  0.105E-01    1.80       1.0  T
   3    -28.1088648  0.103585E-03  0.931E-02    1.79       1.0  T
   4    -28.1090010 -0.136198E-03  0.951E-03    1.80       2.6  T
   5    -28.1090011 -0.153946E-06  0.620E-03    1.80       3.9  T
   6    -28.1090014 -0.274568E-06  0.118E-03    1.80      20.6  T
   7    -28.1090014 -0.217692E-08  0.603E-04    1.80      40.2  T
   8    -28.1090014 -0.339249E-09  0.197E-04    1.80     123.1  T
     SCC iter.                  ...        0 min,  1.747 sec
     gradient                   ...        0 min,  0.175 sec
 * total energy  :   -27.8098111 Eh     change       -0.1909453E-02 Eh
   gradient norm :     0.0393630 Eh/α   predicted    -0.1381952E-02 ( -27.63%)
   displ. norm   :     0.2911617 α      lambda       -0.2993563E-02
   maximum displ.:     0.1362208 α      in ANC's #5, #1, #2, ...

........................................................................
.............................. CYCLE   14 ..............................
........................................................................

 iter      E             dE          RMSdq      gap      omega  full diag
   1    -28.1061456 -0.281061E+02  0.176E-01    1.85       0.0  T
   2    -28.1061822 -0.366014E-04  0.983E-02    1.85       1.0  T
   3    -28.1061729  0.931353E-05  0.577E-02    1.84       1.0  T
   4    -28.1061906 -0.176685E-04  0.188E-02    1.85       1.3  T
   5    -28.1061924 -0.185340E-05  0.506E-03    1.85       4.8  T
   6    -28.1061923  0.912110E-07  0.310E-03    1.85       7.8  T
   7    -28.1061925 -0.123792E-06  0.127E-03    1.85      19.1  T
   8    -28.1061925 -0.957860E-08  0.686E-04    1.85      35.3  T
   9    -28.1061925 -0.287310E-08  0.235E-04    1.85     103.1  T
     SCC iter.                  ...        0 min,  1.362 sec
     gradient                   ...        0 min,  0.312 sec
 * total energy  :   -27.8120164 Eh     change       -0.2205284E-02 Eh
   gradient norm :     0.0478687 Eh/α   predicted    -0.1623676E-02 ( -26.37%)
   displ. norm   :     0.3142570 α      lambda       -0.3662644E-02
   maximum displ.:     0.1617276 α      in ANC's #5, #11, #2, ...

........................................................................
.............................. CYCLE   15 ..............................
........................................................................

 iter      E             dE          RMSdq      gap      omega  full diag
   1    -28.1050605 -0.281051E+02  0.206E-01    1.91       0.0  T
   2    -28.1051065 -0.460657E-04  0.108E-01    1.91       1.0  T
   3    -28.1050871  0.194021E-04  0.568E-02    1.90       1.0  T
   4    -28.1051104 -0.233184E-04  0.258E-02    1.91       1.0  T
   5    -28.1051160 -0.559067E-05  0.976E-03    1.91       2.5  T
   6    -28.1051164 -0.416303E-06  0.588E-03    1.91       4.1  T
   7    -28.1051168 -0.325316E-06  0.109E-03    1.91      22.2  T
   8    -28.1051168 -0.379132E-08  0.777E-04    1.91      31.2  T
   9    -28.1051168 -0.248483E-08  0.254E-04    1.91      95.3  T
     SCC iter.                  ...        0 min,  1.157 sec
     gradient                   ...        0 min,  0.262 sec
 * total energy  :   -27.8146241 Eh     change       -0.2607660E-02 Eh
   gradient norm :     0.0435195 Eh/α   predicted    -0.2012178E-02 ( -22.84%)
   displ. norm   :     0.3454101 α      lambda       -0.3508642E-02
   maximum displ.:     0.1724979 α      in ANC's #5, #2, #11, ...

........................................................................
.............................. CYCLE   16 ..............................
........................................................................

 iter      E             dE          RMSdq      gap      omega  full diag
   1    -28.1057217 -0.281057E+02  0.192E-01    1.96       0.0  T
   2    -28.1057390 -0.173213E-04  0.129E-01    1.95       1.0  T
   3    -28.1057077  0.313769E-04  0.904E-02    1.95       1.0  T
   4    -28.1058236 -0.115941E-03  0.234E-02    1.95       1.0  T
   5    -28.1058255 -0.194401E-05  0.953E-03    1.95       2.5  T
   6    -28.1058258 -0.294660E-06  0.450E-03    1.95       5.4  T
   7    -28.1058260 -0.116878E-06  0.132E-03    1.95      18.4  T
   8    -28.1058260 -0.817451E-09  0.847E-04    1.95      28.6  T
   9    -28.1058260 -0.347088E-08  0.287E-04    1.95      84.6  T
     SCC iter.                  ...        0 min,  2.036 sec
     gradient                   ...        0 min,  0.310 sec
 * total energy  :   -27.8173122 Eh     change       -0.2688152E-02 Eh
   gradient norm :     0.0416924 Eh/α   predicted    -0.1963629E-02 ( -26.95%)
   displ. norm   :     0.3734698 α      lambda       -0.4392494E-02
   maximum displ.:     0.1906272 α      in ANC's #5, #2, #11, ...

........................................................................
.............................. CYCLE   17 ..............................
........................................................................

 iter      E             dE          RMSdq      gap      omega  full diag
   1    -28.1123732 -0.281124E+02  0.265E-01    1.98       0.0  T
   2    -28.1123557  0.175432E-04  0.160E-01    1.96       1.0  T
   3    -28.1122724  0.832936E-04  0.125E-01    1.98       1.0  T
   4    -28.1124886 -0.216221E-03  0.263E-02    1.97       1.0  T
   5    -28.1124912 -0.256048E-05  0.172E-02    1.97       1.4  T
   6    -28.1124925 -0.134607E-05  0.315E-03    1.97       7.7  T
   7    -28.1124926 -0.577825E-07  0.166E-03    1.97      14.6  T
   8    -28.1124926  0.107878E-08  0.109E-03    1.97      22.2  T
   9    -28.1124926 -0.644801E-08  0.314E-04    1.97      77.3  T
  10    -28.1124926 -0.203670E-09  0.127E-04    1.97     191.6  T
     SCC iter.                  ...        0 min,  1.959 sec
     gradient                   ...        0 min,  0.143 sec
 * total energy  :   -27.8205700 Eh     change       -0.3257751E-02 Eh
   gradient norm :     0.0414495 Eh/α   predicted    -0.2502581E-02 ( -23.18%)
   displ. norm   :     0.4174744 α      lambda       -0.4045244E-02
   maximum displ.:     0.2118555 α      in ANC's #5, #2, #11, ...

........................................................................
.............................. CYCLE   18 ..............................
........................................................................

 iter      E             dE          RMSdq      gap      omega  full diag
   1    -28.1187066 -0.281187E+02  0.262E-01    1.98       0.0  T
   2    -28.1187078 -0.119025E-05  0.151E-01    1.95       1.0  T
   3    -28.1186936  0.142020E-04  0.111E-01    1.98       1.0  T
   4    -28.1188196 -0.126017E-03  0.321E-02    1.96       1.0  T
   5    -28.1188284 -0.876799E-05  0.186E-02    1.96       1.3  T
   6    -28.1188304 -0.193884E-05  0.333E-03    1.96       7.3  T
   7    -28.1188304 -0.244521E-07  0.187E-03    1.96      12.9  T
   8    -28.1188304 -0.425010E-08  0.851E-04    1.96      28.5  T
   9    -28.1188304 -0.288511E-08  0.259E-04    1.96      93.5  T
     SCC iter.                  ...        0 min,  1.901 sec
     gradient                   ...        0 min,  0.224 sec
 * total energy  :   -27.8236637 Eh     change       -0.3093727E-02 Eh
   gradient norm :     0.0397249 Eh/α   predicted    -0.2375142E-02 ( -23.23%)
   displ. norm   :     0.3765398 α      lambda       -0.3971894E-02
   maximum displ.:     0.1964148 α      in ANC's #5, #2, #11, ...

........................................................................
.............................. CYCLE   19 ..............................
........................................................................

 iter      E             dE          RMSdq      gap      omega  full diag
   1    -28.1273652 -0.281274E+02  0.272E-01    1.96       0.0  T
   2    -28.1274130 -0.477806E-04  0.143E-01    1.94       1.0  T
   3    -28.1273937  0.192663E-04  0.923E-02    1.96       1.0  T
   4    -28.1274461 -0.523731E-04  0.276E-02    1.94       1.0  T
   5    -28.1274492 -0.304569E-05  0.170E-02    1.95       1.4  T
   6    -28.1274520 -0.286367E-05  0.563E-03    1.95       4.3  T
   7    -28.1274522 -0.148106E-06  0.220E-03    1.95      11.0  T
   8    -28.1274522 -0.308486E-08  0.113E-03    1.95      21.4  T
   9    -28.1274522 -0.449876E-08  0.369E-04    1.95      65.8  T
  10    -28.1274522 -0.721769E-09  0.165E-04    1.95     146.6  T
     SCC iter.                  ...        0 min,  2.697 sec
     gradient                   ...        0 min,  0.384 sec
 * total energy  :   -27.8263370 Eh     change       -0.2673260E-02 Eh
   gradient norm :     0.0301089 Eh/α   predicted    -0.2267521E-02 ( -15.18%)
   displ. norm   :     0.4464581 α      lambda       -0.2525511E-02
   maximum displ.:     0.2361587 α      in ANC's #5, #2, #11, ...

........................................................................
.............................. CYCLE   20 ..............................
........................................................................

 iter      E             dE          RMSdq      gap      omega  full diag
   1    -28.1229411 -0.281229E+02  0.204E-01    1.99       0.0  T
   2    -28.1229640 -0.229258E-04  0.117E-01    1.96       1.0  T
   3    -28.1229518  0.122094E-04  0.817E-02    1.98       1.0  T
   4    -28.1229987 -0.468118E-04  0.242E-02    1.97       1.0  T
   5    -28.1230044 -0.577870E-05  0.127E-02    1.97       1.9  T
   6    -28.1230055 -0.108173E-05  0.427E-03    1.97       5.7  T
   7    -28.1230057 -0.146109E-06  0.189E-03    1.97      12.8  T
   8    -28.1230057 -0.531875E-08  0.927E-04    1.97      26.2  T
   9    -28.1230057 -0.641069E-09  0.255E-04    1.97      95.3  T
     SCC iter.                  ...        0 min,  3.178 sec
     gradient                   ...        0 min,  0.332 sec
 * total energy  :   -27.8277973 Eh     change       -0.1460363E-02 Eh
   gradient norm :     0.0636356 Eh/α   predicted    -0.1514455E-02 (   3.70%)
   displ. norm   :     0.1849607 α      lambda       -0.2433555E-02
   maximum displ.:     0.0943694 α      in ANC's #5, #2, #4, ...
 * RMSD in coord.:     0.9589776 α      energy gain  -0.1936913E+01 Eh

generating ANC from exact Hessian ...
Using Lindh-Hessian (1995)
 Shifting diagonal of input Hessian by    7.6218568494464426E-003
 Lowest  eigenvalues of input Hessian
    0.000000    0.000000    0.000000    0.000000    0.000000    0.000000
    0.010000    0.010686    0.012792    0.015639    0.017202    0.019865
    0.021874    0.029745    0.036508    0.048987    0.051498    0.070864
 Highest eigenvalues
    1.952819    2.023612    2.434475    2.507208    4.206358    5.859164


........................................................................
.............................. CYCLE   21 ..............................
........................................................................

 iter      E             dE          RMSdq      gap      omega  full diag
   1    -28.1278104 -0.281278E+02  0.151E-01    1.99       0.0  T
   2    -28.1278288 -0.184267E-04  0.117E-01    2.01       1.0  T
   3    -28.1278859 -0.570655E-04  0.596E-02    2.00       1.0  T
   4    -28.1278845  0.141474E-05  0.255E-02    2.01       1.0  T
   5    -28.1278949 -0.103803E-04  0.550E-03    2.00       4.4  T
   6    -28.1278950 -0.179075E-06  0.249E-03    2.00       9.7  T
   7    -28.1278950 -0.476204E-08  0.880E-04    2.00      27.6  T
   8    -28.1278951 -0.190338E-08  0.558E-04    2.00      43.4  T
     SCC iter.                  ...        0 min,  2.166 sec
     gradient                   ...        0 min,  0.324 sec
 * total energy  :   -27.8292234 Eh     change       -0.1426029E-02 Eh
   gradient norm :     0.0456121 Eh/α   predicted     0.0000000E+00 (-100.00%)
   displ. norm   :     0.4524632 α      lambda       -0.5959331E-02
   maximum displ.:     0.3397586 α      in ANC's #2, #1, #10, ...

........................................................................
.............................. CYCLE   22 ..............................
........................................................................

 iter      E             dE          RMSdq      gap      omega  full diag
   1    -28.1287775 -0.281288E+02  0.274E-01    2.14       0.0  T
   2    -28.1288491 -0.715628E-04  0.162E-01    2.11       1.0  T
   3    -28.1288269  0.222593E-04  0.972E-02    2.13       1.0  T
   4    -28.1288851 -0.582920E-04  0.258E-02    2.12       1.0  T
   5    -28.1288867 -0.157838E-05  0.149E-02    2.12       1.6  T
   6    -28.1288886 -0.183823E-05  0.879E-03    2.12       2.8  T
   7    -28.1288894 -0.851676E-06  0.169E-03    2.12      14.3  T
   8    -28.1288894 -0.133471E-08  0.766E-04    2.12      31.7  T
   9    -28.1288894 -0.276315E-08  0.277E-04    2.12      87.5  T
     SCC iter.                  ...        0 min,  1.611 sec
     gradient                   ...        0 min,  0.174 sec
 * total energy  :   -27.8337539 Eh     change       -0.4530532E-02 Eh
   gradient norm :     0.0243979 Eh/α   predicted    -0.3589685E-02 ( -20.77%)
   displ. norm   :     0.5441984 α      lambda       -0.3969962E-02
   maximum displ.:     0.3721112 α      in ANC's #2, #1, #10, ...

........................................................................
.............................. CYCLE   23 ..............................
........................................................................

 iter      E             dE          RMSdq      gap      omega  full diag
   1    -28.1261336 -0.281261E+02  0.337E-01    2.23       0.0  T
   2    -28.1262861 -0.152547E-03  0.204E-01    2.18       1.0  T
   3    -28.1264237 -0.137626E-03  0.110E-01    2.21       1.0  T
   4    -28.1264617 -0.379495E-04  0.275E-02    2.20       1.0  T
   5    -28.1264599  0.176031E-05  0.202E-02    2.20       1.2  T
   6    -28.1264656 -0.568502E-05  0.543E-03    2.20       4.5  T
   7    -28.1264659 -0.270179E-06  0.147E-03    2.20      16.5  T
   8    -28.1264659 -0.114981E-07  0.839E-04    2.20      28.9  T
   9    -28.1264659 -0.434682E-09  0.426E-04    2.20      56.9  T
     SCC iter.                  ...        0 min,  2.174 sec
     gradient                   ...        0 min,  0.351 sec
 * total energy  :   -27.8362481 Eh     change       -0.2494181E-02 Eh
   gradient norm :     0.0732128 Eh/α   predicted    -0.2572778E-02 (   3.15%)
   displ. norm   :     0.4298263 α      lambda       -0.2883391E-02
   maximum displ.:     0.3157026 α      in ANC's #1, #2, #4, ...

........................................................................
.............................. CYCLE   24 ..............................
........................................................................

 iter      E             dE          RMSdq      gap      omega  full diag
   1    -28.1269305 -0.281269E+02  0.211E-01    2.26       0.0  T
   2    -28.1270002 -0.697411E-04  0.157E-01    2.28       1.0  T
   3    -28.1270751 -0.748614E-04  0.800E-02    2.27       1.0  T
   4    -28.1270809 -0.585963E-05  0.146E-02    2.27       1.7  T
   5    -28.1270813 -0.338027E-06  0.646E-03    2.27       3.8  T
   6    -28.1270815 -0.182315E-06  0.395E-03    2.27       6.1  T
   7    -28.1270816 -0.150701E-06  0.171E-03    2.27      14.2  T
   8    -28.1270816 -0.293955E-07  0.662E-04    2.27      36.6  T
   9    -28.1270816 -0.469818E-09  0.273E-04    2.27      88.9  T
     SCC iter.                  ...        0 min,  2.252 sec
     gradient                   ...        0 min,  0.147 sec
 * total energy  :   -27.8376763 Eh     change       -0.1428260E-02 Eh
   gradient norm :     0.0224323 Eh/α   predicted    -0.1708044E-02 (  19.59%)
   displ. norm   :     0.3494508 α      lambda       -0.2170290E-02
   maximum displ.:     0.2524022 α      in ANC's #1, #2, #3, ...

........................................................................
.............................. CYCLE   25 ..............................
........................................................................

 iter      E             dE          RMSdq      gap      omega  full diag
   1    -28.1315507 -0.281316E+02  0.209E-01    2.30       0.0  T
   2    -28.1315951 -0.444546E-04  0.119E-01    2.29       1.0  T
   3    -28.1316069 -0.117957E-04  0.731E-02    2.30       1.0  T
   4    -28.1316431 -0.362058E-04  0.286E-02    2.29       1.0  T
   5    -28.1316498 -0.665840E-05  0.143E-02    2.29       1.7  T
   6    -28.1316515 -0.166804E-05  0.393E-03    2.29       6.2  T
   7    -28.1316515 -0.731597E-07  0.122E-03    2.29      19.9  T
   8    -28.1316515 -0.153555E-08  0.761E-04    2.29      31.9  T
   9    -28.1316516 -0.153630E-08  0.340E-04    2.29      71.4  T
     SCC iter.                  ...        0 min,  1.353 sec
     gradient                   ...        0 min,  0.043 sec
 * total energy  :   -27.8392275 Eh     change       -0.1551178E-02 Eh
   gradient norm :     0.0199393 Eh/α   predicted    -0.1217660E-02 ( -21.50%)
   displ. norm   :     0.3924513 α      lambda       -0.1464299E-02
   maximum displ.:     0.2301247 α      in ANC's #1, #2, #3, ...

........................................................................
.............................. CYCLE   26 ..............................
........................................................................

 iter      E             dE          RMSdq      gap      omega  full diag
   1    -28.1348087 -0.281348E+02  0.247E-01    2.29       0.0  T
   2    -28.1349437 -0.135029E-03  0.138E-01    2.28       1.0  T
   3    -28.1350307 -0.869418E-04  0.730E-02    2.29       1.0  T
   4    -28.1350430 -0.123007E-04  0.227E-02    2.28       1.1  T
   5    -28.1350439 -0.953049E-06  0.140E-02    2.29       1.7  T
   6    -28.1350458 -0.188133E-05  0.534E-03    2.29       4.5  T
   7    -28.1350461 -0.299010E-06  0.160E-03    2.29      15.2  T
   8    -28.1350461 -0.122763E-07  0.931E-04    2.29      26.0  T
   9    -28.1350461 -0.897096E-10  0.513E-04    2.29      47.3  T
     SCC iter.                  ...        0 min,  1.131 sec
     gradient                   ...        0 min,  0.257 sec
 * total energy  :   -27.8400211 Eh     change       -0.7935908E-03 Eh
   gradient norm :     0.0367448 Eh/α   predicted    -0.8449071E-03 (   6.47%)
   displ. norm   :     0.1960575 α      lambda       -0.7511729E-03
   maximum displ.:     0.1406077 α      in ANC's #1, #3, #4, ...

........................................................................
.............................. CYCLE   27 ..............................
........................................................................

 iter      E             dE          RMSdq      gap      omega  full diag
   1    -28.1401852 -0.281402E+02  0.106E-01    2.27       0.0  T
   2    -28.1402111 -0.258691E-04  0.788E-02    2.29       1.0  T
   3    -28.1402363 -0.251751E-04  0.397E-02    2.28       1.0  T
   4    -28.1402345  0.180676E-05  0.224E-02    2.28       1.1  T
   5    -28.1402406 -0.615951E-05  0.719E-03    2.28       3.4  T
   6    -28.1402412 -0.615328E-06  0.179E-03    2.28      13.6  T
   7    -28.1402412 -0.665447E-08  0.508E-04    2.28      47.7  T
   8    -28.1402412 -0.170515E-08  0.220E-04    2.28     110.5  T
     SCC iter.                  ...        0 min,  1.339 sec
     gradient                   ...        0 min,  0.067 sec
 * total energy  :   -27.8403404 Eh     change       -0.3192562E-03 Eh
   gradient norm :     0.0142791 Eh/α   predicted    -0.3900243E-03 (  22.17%)
   displ. norm   :     0.1904909 α      lambda       -0.3082867E-03
   maximum displ.:     0.1160093 α      in ANC's #1, #2, #4, ...

........................................................................
.............................. CYCLE   28 ..............................
........................................................................

 iter      E             dE          RMSdq      gap      omega  full diag
   1    -28.1373375 -0.281373E+02  0.101E-01    2.30       0.0  T
   2    -28.1373503 -0.127672E-04  0.540E-02    2.30       1.0  T
   3    -28.1373569 -0.655798E-05  0.370E-02    2.30       1.0  T
   4    -28.1373609 -0.407292E-05  0.104E-02    2.30       2.3  T
   5    -28.1373625 -0.155424E-05  0.389E-03    2.30       6.2  T
   6    -28.1373626 -0.124350E-06  0.120E-03    2.30      20.3  T
   7    -28.1373626 -0.672778E-08  0.506E-04    2.30      47.9  T
   8    -28.1373626 -0.907384E-09  0.252E-04    2.30      96.1  T
     SCC iter.                  ...        0 min,  1.122 sec
     gradient                   ...        0 min,  0.223 sec
 * total energy  :   -27.8404778 Eh     change       -0.1374329E-03 Eh
   gradient norm :     0.0069422 Eh/α   predicted    -0.1597376E-03 (  16.23%)
   displ. norm   :     0.0575740 α      lambda       -0.1140273E-03
   maximum displ.:     0.0301799 α      in ANC's #3, #1, #5, ...

........................................................................
.............................. CYCLE   29 ..............................
........................................................................

 iter      E             dE          RMSdq      gap      omega  full diag
   1    -28.1389076 -0.281389E+02  0.375E-02    2.30       0.0  T
   2    -28.1389087 -0.103374E-05  0.220E-02    2.30       1.1  T
   3    -28.1389082  0.416889E-06  0.106E-02    2.30       2.3  T
   4    -28.1389089 -0.697785E-06  0.363E-03    2.30       6.7  T
   5    -28.1389090 -0.315531E-07  0.209E-03    2.30      11.6  T
   6    -28.1389090 -0.517135E-07  0.737E-04    2.30      32.9  T
   7    -28.1389090 -0.230449E-08  0.294E-04    2.30      82.4  T
     SCC iter.                  ...        0 min,  1.125 sec
     gradient                   ...        0 min,  0.084 sec
 * total energy  :   -27.8405430 Eh     change       -0.6520779E-04 Eh
   gradient norm :     0.0041704 Eh/α   predicted    -0.5720317E-04 ( -12.28%)
   displ. norm   :     0.0695137 α      lambda       -0.6763716E-04
   maximum displ.:     0.0518097 α      in ANC's #3, #5, #4, ...

........................................................................
.............................. CYCLE   30 ..............................
........................................................................

 iter      E             dE          RMSdq      gap      omega  full diag
   1    -28.1391692 -0.281392E+02  0.341E-02    2.30       0.0  T
   2    -28.1391700 -0.832637E-06  0.208E-02    2.30       1.2  T
   3    -28.1391704 -0.415012E-06  0.137E-02    2.30       1.8  T
   4    -28.1391711 -0.669570E-06  0.479E-03    2.30       5.1  T
   5    -28.1391715 -0.404176E-06  0.113E-03    2.30      21.4  T
   6    -28.1391715 -0.538457E-08  0.338E-04    2.30      71.7  T
   7    -28.1391715 -0.693298E-09  0.155E-04    2.30     156.3  T
     SCC iter.                  ...        0 min,  1.639 sec
     gradient                   ...        0 min,  0.215 sec
 * total energy  :   -27.8405929 Eh     change       -0.4988371E-04 Eh
   gradient norm :     0.0042996 Eh/α   predicted    -0.3398215E-04 ( -31.88%)
   displ. norm   :     0.1308653 α      lambda       -0.8326428E-04
   maximum displ.:     0.0872737 α      in ANC's #3, #5, #4, ...

........................................................................
.............................. CYCLE   31 ..............................
........................................................................

 iter      E             dE          RMSdq      gap      omega  full diag
   1    -28.1386537 -0.281387E+02  0.441E-02    2.30       0.0  T
   2    -28.1386540 -0.367700E-06  0.263E-02    2.30       1.0  T
   3    -28.1386509  0.309390E-05  0.190E-02    2.30       1.3  T
   4    -28.1386550 -0.410879E-05  0.373E-03    2.30       6.5  T
   5    -28.1386552 -0.186922E-06  0.175E-03    2.30      13.8  T
   6    -28.1386553 -0.272951E-07  0.381E-04    2.30      63.6  T
   7    -28.1386553 -0.195254E-09  0.177E-04    2.30     136.7  T
     SCC iter.                  ...        0 min,  1.449 sec
     gradient                   ...        0 min,  0.060 sec
 * total energy  :   -27.8406486 Eh     change       -0.5569206E-04 Eh
   gradient norm :     0.0067396 Eh/α   predicted    -0.4234522E-04 ( -23.97%)
   displ. norm   :     0.1160506 α      lambda       -0.6068432E-04
   maximum displ.:     0.0780377 α      in ANC's #3, #5, #4, ...

........................................................................
.............................. CYCLE   32 ..............................
........................................................................

 iter      E             dE          RMSdq      gap      omega  full diag
   1    -28.1382101 -0.281382E+02  0.342E-02    2.30       0.0  T
   2    -28.1382106 -0.481959E-06  0.201E-02    2.30       1.2  T
   3    -28.1382096  0.105077E-05  0.129E-02    2.30       1.9  T
   4    -28.1382110 -0.140368E-05  0.346E-03    2.30       7.0  T
   5    -28.1382112 -0.170176E-06  0.158E-03    2.30      15.4  T
   6    -28.1382112 -0.209009E-07  0.379E-04    2.30      64.0  T
   7    -28.1382112 -0.462371E-09  0.156E-04    2.30     155.6  T
     SCC iter.                  ...        0 min,  1.276 sec
     gradient                   ...        0 min,  0.202 sec
 * total energy  :   -27.8406946 Eh     change       -0.4598210E-04 Eh
   gradient norm :     0.0076237 Eh/α   predicted    -0.3075216E-04 ( -33.12%)
   displ. norm   :     0.1997273 α      lambda       -0.1102514E-03
   maximum displ.:     0.1330486 α      in ANC's #3, #4, #5, ...

........................................................................
.............................. CYCLE   33 ..............................
........................................................................

 iter      E             dE          RMSdq      gap      omega  full diag
   1    -28.1373587 -0.281374E+02  0.539E-02    2.30       0.0  T
   2    -28.1373601 -0.140953E-05  0.312E-02    2.30       1.0  T
   3    -28.1373592  0.982429E-06  0.161E-02    2.30       1.5  T
   4    -28.1373607 -0.159014E-05  0.261E-03    2.30       9.3  T
   5    -28.1373608 -0.290030E-07  0.964E-04    2.30      25.2  T
   6    -28.1373608 -0.191994E-08  0.308E-04    2.30      78.8  T
     SCC iter.                  ...        0 min,  0.924 sec
     gradient                   ...        0 min,  0.200 sec
 * total energy  :   -27.8407720 Eh     change       -0.7740568E-04 Eh
   gradient norm :     0.0076960 Eh/α   predicted    -0.5732778E-04 ( -25.94%)
   displ. norm   :     0.1710819 α      lambda       -0.1491583E-03
   maximum displ.:     0.0940939 α      in ANC's #3, #4, #5, ...

........................................................................
.............................. CYCLE   34 ..............................
........................................................................

 iter      E             dE          RMSdq      gap      omega  full diag
   1    -28.1387648 -0.281388E+02  0.564E-02    2.30       0.0  T
   2    -28.1387659 -0.111429E-05  0.321E-02    2.30       1.0  T
   3    -28.1387607  0.521803E-05  0.200E-02    2.30       1.2  T
   4    -28.1387669 -0.616977E-05  0.538E-03    2.30       4.5  T
   5    -28.1387671 -0.231682E-06  0.249E-03    2.30       9.7  T
   6    -28.1387671 -0.360082E-07  0.777E-04    2.30      31.2  T
   7    -28.1387671 -0.322663E-08  0.307E-04    2.30      79.0  T
     SCC iter.                  ...        0 min,  1.659 sec
     gradient                   ...        0 min,  0.128 sec
 * total energy  :   -27.8408471 Eh     change       -0.7514175E-04 Eh
   gradient norm :     0.0066992 Eh/α   predicted    -0.7675898E-04 (   2.15%)
   displ. norm   :     0.3379306 α      lambda       -0.1917001E-03
   maximum displ.:     0.2518359 α      in ANC's #3, #4, #5, ...

........................................................................
.............................. CYCLE   35 ..............................
........................................................................

 iter      E             dE          RMSdq      gap      omega  full diag
   1    -28.1348877 -0.281349E+02  0.101E-01    2.30       0.0  T
   2    -28.1348952 -0.751840E-05  0.575E-02    2.30       1.0  T
   3    -28.1348915  0.372822E-05  0.226E-02    2.30       1.1  T
   4    -28.1348949 -0.343037E-05  0.974E-03    2.30       2.5  T
   5    -28.1348964 -0.145461E-05  0.322E-03    2.30       7.5  T
   6    -28.1348964 -0.601260E-07  0.138E-03    2.30      17.6  T
   7    -28.1348964 -0.802619E-08  0.549E-04    2.30      44.2  T
   8    -28.1348964 -0.649024E-09  0.283E-04    2.30      85.8  T
     SCC iter.                  ...        0 min,  1.285 sec
     gradient                   ...        0 min,  0.195 sec
 * total energy  :   -27.8407421 Eh     change        0.1050116E-03 Eh
   gradient norm :     0.0149892 Eh/α   predicted    -0.1067965E-03 (-201.70%)
   displ. norm   :     0.2230204 α      lambda       -0.5097586E-03
   maximum displ.:     0.1454726 α      in ANC's #3, #4, #5, ...

........................................................................
.............................. CYCLE   36 ..............................
........................................................................

 iter      E             dE          RMSdq      gap      omega  full diag
   1    -28.1395600 -0.281396E+02  0.802E-02    2.30       0.0  T
   2    -28.1395673 -0.725831E-05  0.449E-02    2.30       1.0  T
   3    -28.1395658  0.147506E-05  0.178E-02    2.30       1.4  T
   4    -28.1395674 -0.160586E-05  0.718E-03    2.30       3.4  T
   5    -28.1395681 -0.685579E-06  0.285E-03    2.30       8.5  T
   6    -28.1395681 -0.640886E-07  0.136E-03    2.30      17.8  T
   7    -28.1395682 -0.142884E-07  0.426E-04    2.30      56.9  T
   8    -28.1395682 -0.601887E-09  0.218E-04    2.30     111.1  T
     SCC iter.                  ...        0 min,  1.426 sec
     gradient                   ...        0 min,  0.292 sec
 * total energy  :   -27.8409398 Eh     change       -0.1976633E-03 Eh
   gradient norm :     0.0039114 Eh/α   predicted    -0.2675583E-03 (  35.36%)
   displ. norm   :     0.0512100 α      lambda       -0.4481482E-04
   maximum displ.:     0.0315300 α      in ANC's #3, #4, #1, ...

........................................................................
.............................. CYCLE   37 ..............................
........................................................................

 iter      E             dE          RMSdq      gap      omega  full diag
   1    -28.1396349 -0.281396E+02  0.203E-02    2.30       0.0  T
   2    -28.1396350 -0.861236E-07  0.120E-02    2.30       2.0  T
   3    -28.1396348  0.214472E-06  0.431E-03    2.30       5.6  T
   4    -28.1396350 -0.245925E-06  0.121E-03    2.30      20.0  T
   5    -28.1396350 -0.122093E-07  0.604E-04    2.30      40.2  T
   6    -28.1396350 -0.326956E-08  0.203E-04    2.30     119.7  T
     SCC iter.                  ...        0 min,  1.345 sec
     gradient                   ...        0 min,  0.400 sec
 * total energy  :   -27.8409683 Eh     change       -0.2854887E-04 Eh
   gradient norm :     0.0023891 Eh/α   predicted    -0.2246717E-04 ( -21.30%)
   displ. norm   :     0.1201341 α      lambda       -0.4895320E-04
   maximum displ.:     0.0924378 α      in ANC's #3, #4, #24, ...

........................................................................
.............................. CYCLE   38 ..............................
........................................................................

 iter      E             dE          RMSdq      gap      omega  full diag
   1    -28.1393391 -0.281393E+02  0.317E-02    2.30       0.0  T
   2    -28.1393394 -0.308747E-06  0.188E-02    2.30       1.3  T
   3    -28.1393389  0.537553E-06  0.102E-02    2.30       2.4  T
   4    -28.1393396 -0.706359E-06  0.180E-03    2.30      13.4  T
   5    -28.1393396 -0.293375E-07  0.106E-03    2.30      22.9  T
   6    -28.1393396 -0.988540E-08  0.383E-04    2.30      63.4  T
   7    -28.1393396 -0.745786E-09  0.195E-04    2.30     124.4  T
     SCC iter.                  ...        0 min,  1.628 sec
     gradient                   ...        0 min,  0.214 sec
 * total energy  :   -27.8410049 Eh     change       -0.3659526E-04 Eh
   gradient norm :     0.0030849 Eh/α   predicted    -0.2482833E-04 ( -32.15%)
   displ. norm   :     0.1477429 α      lambda       -0.4461236E-04
   maximum displ.:     0.1107437 α      in ANC's #3, #4, #29, ...

........................................................................
.............................. CYCLE   39 ..............................
........................................................................

 iter      E             dE          RMSdq      gap      omega  full diag
   1    -28.1387210 -0.281387E+02  0.374E-02    2.30       0.0  T
   2    -28.1387214 -0.378900E-06  0.226E-02    2.30       1.1  T
   3    -28.1387203  0.103870E-05  0.130E-02    2.30       1.9  T
   4    -28.1387217 -0.131290E-05  0.225E-03    2.30      10.8  T
   5    -28.1387217 -0.585928E-07  0.131E-03    2.30      18.5  T
   6    -28.1387217 -0.165128E-07  0.411E-04    2.30      59.0  T
   7    -28.1387217 -0.446065E-09  0.229E-04    2.30     105.9  T
     SCC iter.                  ...        0 min,  1.347 sec
     gradient                   ...        0 min,  0.217 sec
 * total energy  :   -27.8410300 Eh     change       -0.2507809E-04 Eh
   gradient norm :     0.0043290 Eh/α   predicted    -0.2279479E-04 (  -9.10%)
   displ. norm   :     0.0360926 α      lambda       -0.2774786E-04
   maximum displ.:     0.0218650 α      in ANC's #3, #4, #29, ...

........................................................................
.............................. CYCLE   40 ..............................
........................................................................

 iter      E             dE          RMSdq      gap      omega  full diag
   1    -28.1393014 -0.281393E+02  0.132E-02    2.30       0.0  T
   2    -28.1393016 -0.147794E-06  0.758E-03    2.30       3.2  T
   3    -28.1393015  0.367917E-07  0.311E-03    2.30       7.8  T
   4    -28.1393016 -0.525432E-07  0.932E-04    2.30      26.0  T
   5    -28.1393016 -0.433340E-08  0.482E-04    2.30      50.3  T
     SCC iter.                  ...        0 min,  1.367 sec
     gradient                   ...        0 min,  0.352 sec
 * total energy  :   -27.8410496 Eh     change       -0.1956623E-04 Eh
   gradient norm :     0.0031465 Eh/α   predicted    -0.1389158E-04 ( -29.00%)
   displ. norm   :     0.0980156 α      lambda       -0.2549162E-04
   maximum displ.:     0.0629821 α      in ANC's #3, #4, #29, ...

........................................................................
.............................. CYCLE   41 ..............................
........................................................................

 iter      E             dE          RMSdq      gap      omega  full diag
   1    -28.1393176 -0.281393E+02  0.251E-02    2.30       0.0  T
   2    -28.1393177 -0.796579E-07  0.151E-02    2.30       1.6  T
   3    -28.1393173  0.360019E-06  0.500E-03    2.30       4.8  T
   4    -28.1393177 -0.385587E-06  0.113E-03    2.30      21.5  T
   5    -28.1393177 -0.105917E-07  0.618E-04    2.30      39.2  T
   6    -28.1393177 -0.391521E-08  0.207E-04    2.30     117.1  T
     SCC iter.                  ...        0 min,  1.514 sec
     gradient                   ...        0 min,  0.321 sec
 * total energy  :   -27.8410685 Eh     change       -0.1890389E-04 Eh
   gradient norm :     0.0028530 Eh/α   predicted    -0.1286873E-04 ( -31.93%)
   displ. norm   :     0.1209670 α      lambda       -0.2602749E-04
   maximum displ.:     0.0714010 α      in ANC's #3, #4, #5, ...

........................................................................
.............................. CYCLE   42 ..............................
........................................................................

 iter      E             dE          RMSdq      gap      omega  full diag
   1    -28.1393446 -0.281393E+02  0.322E-02    2.30       0.0  T
   2    -28.1393447 -0.166520E-06  0.187E-02    2.30       1.3  T
   3    -28.1393444  0.335133E-06  0.739E-03    2.30       3.3  T
   4    -28.1393448 -0.397394E-06  0.171E-03    2.30      14.2  T
   5    -28.1393448 -0.158053E-07  0.943E-04    2.30      25.7  T
   6    -28.1393448 -0.947367E-08  0.280E-04    2.30      86.8  T
     SCC iter.                  ...        0 min,  1.060 sec
     gradient                   ...        0 min,  0.439 sec
 * total energy  :   -27.8410869 Eh     change       -0.1846613E-04 Eh
   gradient norm :     0.0027321 Eh/α   predicted    -0.1320486E-04 ( -28.49%)
   displ. norm   :     0.0966348 α      lambda       -0.2480782E-04
   maximum displ.:     0.0428473 α      in ANC's #3, #4, #5, ...
 * RMSD in coord.:     0.7266043 α      energy gain  -0.1328958E-01 Eh

generating ANC from exact Hessian ...
Using Lindh-Hessian (1995)
 Shifting diagonal of input Hessian by    1.6774926560058759E-002
 Lowest  eigenvalues of input Hessian
    0.010000    0.000000    0.000000    0.000000    0.000000    0.000000
    0.000000    0.019954    0.022123    0.025494    0.026541    0.028908
    0.031838    0.037085    0.044960    0.058001    0.059964    0.075416
 Highest eigenvalues
    1.999784    2.037415    2.360731    2.559560    4.472853    5.493397


........................................................................
.............................. CYCLE   43 ..............................
........................................................................

 iter      E             dE          RMSdq      gap      omega  full diag
   1    -28.1398154 -0.281398E+02  0.305E-02    2.31       0.0  T
   2    -28.1398158 -0.367029E-06  0.168E-02    2.30       1.4  T
   3    -28.1398155  0.232666E-06  0.933E-03    2.31       2.6  T
   4    -28.1398160 -0.428823E-06  0.204E-03    2.31      11.9  T
   5    -28.1398160 -0.901638E-08  0.678E-04    2.31      35.8  T
   6    -28.1398160 -0.304188E-08  0.344E-04    2.31      70.5  T
     SCC iter.                  ...        0 min,  2.093 sec
     gradient                   ...        0 min,  0.290 sec
 * total energy  :   -27.8411020 Eh     change       -0.1507353E-04 Eh
   gradient norm :     0.0022298 Eh/α   predicted     0.0000000E+00 (-100.00%)
   displ. norm   :     0.0116862 α      lambda       -0.9561942E-05
   maximum displ.:     0.0061168 α      in ANC's #9, #5, #2, ...

........................................................................
.............................. CYCLE   44 ..............................
........................................................................

 iter      E             dE          RMSdq      gap      omega  full diag
   1    -28.1396476 -0.281396E+02  0.825E-03    2.30       0.0  T
   2    -28.1396476 -0.365138E-07  0.488E-03    2.30       5.0  T
   3    -28.1396476  0.454030E-07  0.273E-03    2.30       8.9  T
   4    -28.1396476 -0.728592E-07  0.694E-04    2.30      34.9  T
   5    -28.1396476  0.860364E-09  0.520E-04    2.30      46.6  T
     SCC iter.                  ...        0 min,  2.897 sec
     gradient                   ...        0 min,  0.362 sec
 * total energy  :   -27.8411089 Eh     change       -0.6936852E-05 Eh
   gradient norm :     0.0008079 Eh/α   predicted    -0.4780649E-05 ( -31.08%)
   displ. norm   :     0.0283435 α      lambda       -0.5805869E-05
   maximum displ.:     0.0144530 α      in ANC's #5, #1, #2, ...

........................................................................
.............................. CYCLE   45 ..............................
........................................................................

 iter      E             dE          RMSdq      gap      omega  full diag
   1    -28.1394744 -0.281395E+02  0.125E-02    2.31       0.0  T
   2    -28.1394745 -0.114643E-06  0.758E-03    2.31       3.2  T
   3    -28.1394744  0.655409E-07  0.431E-03    2.31       5.6  T
   4    -28.1394746 -0.156146E-06  0.107E-03    2.31      22.7  T
   5    -28.1394746  0.390227E-08  0.759E-04    2.31      31.9  T
   6    -28.1394746 -0.102642E-07  0.145E-04    2.31     167.7  T
     SCC iter.                  ...        0 min,  1.418 sec
     gradient                   ...        0 min,  0.249 sec
 * total energy  :   -27.8411119 Eh     change       -0.3004296E-05 Eh
   gradient norm :     0.0011158 Eh/α   predicted    -0.2905392E-05 (  -3.29%)
   displ. norm   :     0.0077254 α      lambda       -0.1857434E-05
   maximum displ.:     0.0048898 α      in ANC's #5, #8, #12, ...

........................................................................
.............................. CYCLE   46 ..............................
........................................................................

 iter      E             dE          RMSdq      gap      omega  full diag
   1    -28.1395791 -0.281396E+02  0.820E-03    2.30       0.0  T
   2    -28.1395792 -0.694965E-07  0.457E-03    2.30       5.3  T
   3    -28.1395793 -0.376179E-07  0.282E-03    2.30       8.6  T
   4    -28.1395793 -0.302354E-07  0.808E-04    2.30      30.0  T
   5    -28.1395793 -0.643112E-09  0.612E-04    2.30      39.6  T
     SCC iter.                  ...        0 min,  0.819 sec
     gradient                   ...        0 min,  0.049 sec
 * total energy  :   -27.8411131 Eh     change       -0.1176366E-05 Eh
   gradient norm :     0.0005914 Eh/α   predicted    -0.9291641E-06 ( -21.01%)
   displ. norm   :     0.0138900 α      lambda       -0.1682041E-05
   maximum displ.:     0.0119572 α      in ANC's #1, #6, #5, ...

   *** GEOMETRY OPTIMIZATION CONVERGED AFTER 46 ITERATIONS ***

------------------------------------------------------------------------
 total energy gain   :        -1.9502290 Eh    -1223.7872 kcal/mol
 total RMSD          :         1.3365005 a0        0.7072 Å
 total power (kW/mol):      -111.3114263 (step)  -59.1862 (real)
------------------------------------------------------------------------

 ANCopt (total)                0 d,  0 h,  1 min, 26.512 sec
 optimizer setup                ...        0 min,  0.000 sec (  0.000%)
 model hessian                  ...        0 min,  0.038 sec (  0.043%)
 ANC generation                 ...        0 min,  0.001 sec (  0.002%)
 coordinate transformation      ...        0 min,  0.000 sec (  0.001%)
 single point calculation       ...        1 min, 25.661 sec ( 99.016%)
 optimization log               ...        0 min,  0.004 sec (  0.005%)
 hessian update                 ...        0 min,  0.786 sec (  0.908%)
 rational function              ...        0 min,  0.015 sec (  0.017%)

================
 final structure:
================
17
 xtb: 6.7.1 (edcfbbe)
C           -2.60452312753574       -0.16500809445038        0.51139459975844
C           -1.27785785261905        0.12453709043459       -0.05577806954954
C           -0.65260654567750       -0.20950448531702       -1.26746519421604
C            0.70390063955764       -0.29952648501415       -1.13648794263581
N            1.11293199237854       -0.30214977605561        0.15816662712651
C            2.48858390497955       -0.42561544700553        0.56489153418265
N            0.20282413098278       -0.05016508184441        1.08084498471530
S           -0.42907902761842        1.89647993729117        0.65839627736929
O            0.53878021205624        2.27243430434779       -0.39097214218257
H           -2.82577525547827       -1.23123508249229        0.45049020867778
H           -2.63784371865720        0.14285646585296        1.55285541336627
H           -3.36783708774444        0.38356444292713       -0.04184801660835
H           -1.18377802765949       -0.31662536631675       -2.19422283598784
H            1.42860878712240       -0.44782272620615       -1.91533915214047
H            2.50882613311965       -0.70649476259493        1.61681132091663
H            3.01189426818358        0.52595071522431        0.44037328258805
H            2.98295056462579       -1.19167566876470       -0.03211090537708

 Bond Distances (Angstroems)
 ---------------------------
C1-C2=1.4716         C1-H10=1.0906        C1-H11=1.0865        C1-H12=1.0907        C2-C1=1.4716         C2-C3=1.4038         
C2-N7=1.8748         C2-S8=2.0905         C3-C2=1.4038         C3-C4=1.3658         C3-H13=1.0735        C4-C3=1.3658         
C4-N5=1.3577         C4-H14=1.0742        N5-C4=1.3577         N5-C6=1.4398         N5-N7=1.3203         C6-N5=1.4398         
C6-H15=1.0890        C6-H16=1.0931        C6-H17=1.0898        N7-C2=1.8748         N7-N5=1.3203         N7-S8=2.0898         
S8-C2=2.0905         S8-N7=2.0898         S8-O9=1.4762         O9-S8=1.4762         H10-C1=1.0906        H11-C1=1.0865        
H12-C1=1.0907        H13-C3=1.0735        H14-C4=1.0742        H15-C6=1.0890        H16-C6=1.0931        H17-C6=1.0898        
 C  H  Rav=1.0859 sigma=0.0072  Rmin=1.0735  Rmax=1.0931     8
 C  C  Rav=1.4137 sigma=0.0438  Rmin=1.3658  Rmax=1.4716     3
 N  C  Rav=1.5575 sigma=0.2269  Rmin=1.3577  Rmax=1.8748     3
 N  N  Rav=1.3203 sigma=0.0000  Rmin=1.3203  Rmax=1.3203     1
 S  C  Rav=2.0905 sigma=0.0000  Rmin=2.0905  Rmax=2.0905     1
 S  N  Rav=2.0898 sigma=0.0000  Rmin=2.0898  Rmax=2.0898     1
 S  O  Rav=1.4762 sigma=0.0000  Rmin=1.4762  Rmax=1.4762     1

 selected bond angles (degree)
 --------------------
H10-C1-C2=110.71               H11-C1-C2=109.96               H11-C1-H10=108.92              H12-C1-C2=109.66               
H12-C1-H10=108.75              H12-C1-H11=108.80              C3-C2-C1=133.42                N7-C2-C1=117.39                
N7-C2-C3= 98.59                S8-C2-C1=113.65                S8-C2-C3=108.40                S8-C2-N7= 63.33                
C4-C3-C2=112.04                H13-C3-C2=123.26               H13-C3-C4=124.59               N5-C4-C3=113.00                
H14-C4-C3=127.56               H14-C4-N5=119.20               C6-N5-C4=123.87                N7-N5-C4=117.28                
N7-N5-C6=118.53                H15-C6-N5=108.23               H16-C6-N5=110.52               H16-C6-H15=109.01              
H17-C6-N5=109.81               H17-C6-H15=109.84              H17-C6-H16=109.41              N5-N7-C2= 97.96                
S8-N7-C2= 63.37                S8-N7-N5=104.18                N7-S8-C2= 53.29                O9-S8-C2=103.84                
O9-S8-N7=100.53                

 selected dihedral angles (degree)
 ---------------------------------
C3-C2-C1-H10= 50.34           C3-C2-C1-H11=170.75           C3-C2-C1-H12=290.34           N7-C2-C1-H10=274.12           
N7-C2-C1-H11= 34.54           N7-C2-C1-H12=154.13           S8-C2-C1-H10=203.09           S8-C2-C1-H11=323.50           
S8-C2-C1-H12= 83.09           C4-C3-C2-C1=209.23            C4-C3-C2-N7=350.81            C4-C3-C2-S8= 55.46            
H13-C3-C2-C1= 32.88           H13-C3-C2-N7=174.47           H13-C3-C2-S8=239.12           N5-C4-C3-C2= 11.84            
N5-C4-C3-H13=188.13           H14-C4-C3-C2=186.22           H14-C4-C3-H13=  2.51          C6-N5-C4-C3=178.21            
C6-N5-C4-H14=  3.31           N7-N5-C4-C3=351.60            N7-N5-C4-H14=176.70           H15-C6-N5-C4=197.31           
H15-C6-N5-N7= 24.00           H16-C6-N5-C4= 78.01           H16-C6-N5-N7=264.70           H17-C6-N5-C4=317.21           
H17-C6-N5-N7=143.90           C2-N7-N5-C4=  1.95            C2-N7-N5-C6=175.70            S8-N7-N5-C4=297.50            
S8-N7-N5-C6=111.26            N7-S8-C2-C1=110.00            N7-S8-C2-C3=269.48            O9-S8-C2-C1=202.92            
O9-S8-C2-C3=  2.41            O9-S8-C2-N7= 92.92            C2-S8-N7-N5= 91.90            O9-S8-N7-C2=260.51            
O9-S8-N7-N5=352.41            
           -------------------------------------------------
          |                Final Singlepoint                |
           -------------------------------------------------

          ...................................................
          :                      SETUP                      :
          :.................................................:
          :  # basis functions                  50          :
          :  # atomic orbitals                  49          :
          :  # shells                           27          :
          :  # electrons                        50          :
          :  max. iterations                   250          :
          :  Hamiltonian                  GFN2-xTB          :
          :  restarted?                      false          :
          :  GBSA solvation                  false          :
          :  PC potential                    false          :
          :  electronic temp.          300.0000000     K    :
          :  accuracy                    1.0000000          :
          :  -> integral cutoff          0.2500000E+02      :
          :  -> integral neglect         0.1000000E-07      :
          :  -> SCF convergence          0.1000000E-05 Eh   :
          :  -> wf. convergence          0.1000000E-03 e    :
          :  Broyden damping             0.4000000          :
          :  net charge                          0          :
          :  unpaired electrons                  0          :
          ...................................................

 iter      E             dE          RMSdq      gap      omega  full diag
   1    -28.1395793 -0.281396E+02  0.127E-04    2.30       0.0  T
   2    -28.1395793 -0.134648E-11  0.103E-04    2.30     235.2  T
   3    -28.1395793 -0.861107E-10  0.646E-05    2.30     375.5  T

   *** convergence criteria satisfied after 3 iterations ***

         #    Occupation            Energy/Eh            Energy/eV
      -------------------------------------------------------------
         1        2.0000           -0.7277501             -19.8031
       ...           ...                  ...                  ...
        19        2.0000           -0.4696938             -12.7810
        20        2.0000           -0.4633224             -12.6076
        21        2.0000           -0.4424570             -12.0399
        22        2.0000           -0.4178055             -11.3691
        23        2.0000           -0.4143188             -11.2742
        24        2.0000           -0.3869195             -10.5286
        25        2.0000           -0.3341677              -9.0932 (HOMO)
        26                         -0.2494851              -6.7888 (LUMO)
        27                         -0.2402429              -6.5373
        28                         -0.2096116              -5.7038
        29                         -0.1625790              -4.4240
        30                         -0.1254661              -3.4141
       ...                                ...                  ...
        49                          0.8417059              22.9040
      -------------------------------------------------------------
                  HL-Gap            0.0846826 Eh            2.3043 eV
             Fermi-level           -0.2918264 Eh           -7.9410 eV

 SCC (total)                   0 d,  0 h,  0 min,  1.099 sec
 SCC setup                      ...        0 min,  0.017 sec (  1.560%)
 Dispersion                     ...        0 min,  0.072 sec (  6.549%)
 classical contributions        ...        0 min,  0.054 sec (  4.910%)
 integral evaluation            ...        0 min,  0.098 sec (  8.903%)
 iterations                     ...        0 min,  0.544 sec ( 49.493%)
 molecular gradient             ...        0 min,  0.314 sec ( 28.569%)
 printout                       ...        0 min,  0.000 sec (  0.012%)

         :::::::::::::::::::::::::::::::::::::::::::::::::::::
         ::                     SUMMARY                     ::
         :::::::::::::::::::::::::::::::::::::::::::::::::::::
         :: total energy             -27.841113124361 Eh    ::
         :: gradient norm              0.000602866935 Eh/a0 ::
         :: HOMO-LUMO gap              2.304330524081 eV    ::
         ::.................................................::
         :: SCC energy               -28.139530462340 Eh    ::
         :: -> isotropic ES            0.043859903271 Eh    ::
         :: -> anisotropic ES         -0.001974447009 Eh    ::
         :: -> anisotropic XC          0.014785611494 Eh    ::
         :: -> dispersion             -0.015358458290 Eh    ::
         :: repulsion energy           0.296307854463 Eh    ::
         :: add. restraining           0.002109483515 Eh    ::
         :: total charge              -0.000000000000 e     ::
         :::::::::::::::::::::::::::::::::::::::::::::::::::::

           -------------------------------------------------
          |                Property Printout                |
           -------------------------------------------------

    * Orbital Energies and Occupations

         #    Occupation            Energy/Eh            Energy/eV
      -------------------------------------------------------------
         1        2.0000           -0.7277501             -19.8031
       ...           ...                  ...                  ...
        13        2.0000           -0.5083447             -13.8328
        14        2.0000           -0.5063989             -13.7798
        15        2.0000           -0.4957100             -13.4890
        16        2.0000           -0.4851898             -13.2027
        17        2.0000           -0.4816467             -13.1063
        18        2.0000           -0.4764059             -12.9637
        19        2.0000           -0.4696938             -12.7810
        20        2.0000           -0.4633224             -12.6076
        21        2.0000           -0.4424570             -12.0399
        22        2.0000           -0.4178055             -11.3691
        23        2.0000           -0.4143188             -11.2742
        24        2.0000           -0.3869195             -10.5286
        25        2.0000           -0.3341677              -9.0932 (HOMO)
        26                         -0.2494851              -6.7888 (LUMO)
        27                         -0.2402429              -6.5373
        28                         -0.2096116              -5.7038
        29                         -0.1625790              -4.4240
        30                         -0.1254661              -3.4141
        31                          0.0100778               0.2742
        32                          0.0278690               0.7584
        33                          0.0759320               2.0662
        34                          0.0925089               2.5173
        35                          0.1081915               2.9440
        36                          0.1258301               3.4240
       ...                                ...                  ...
        49                          0.8417059              22.9040
      -------------------------------------------------------------
                  HL-Gap            0.0846826 Eh            2.3043 eV
             Fermi-level           -0.2918264 Eh           -7.9410 eV

     #   Z          covCN         q      C6AA      α(0)
     1   6 C        3.754    -0.109    22.636     6.784
     2   6 C        3.479     0.038    21.842     6.989
     3   6 C        2.935    -0.063    29.561     8.917
     4   6 C        2.909     0.013    27.724     8.634
     5   7 N        2.860     0.099    19.527     6.563
     6   6 C        3.697    -0.057    21.768     6.674
     7   7 N        2.382    -0.262    26.957     7.709
     8  16 S        2.532     0.286   129.946    19.186
     9   8 O        0.859    -0.453    22.771     6.398
    10   1 H        0.924     0.062     2.176     2.307
    11   1 H        0.925     0.072     2.065     2.247
    12   1 H        0.924     0.065     2.138     2.286
    13   1 H        0.926     0.051     2.308     2.376
    14   1 H        0.926     0.047     2.355     2.400
    15   1 H        0.925     0.078     1.999     2.211
    16   1 H        0.924     0.073     2.055     2.242
    17   1 H        0.925     0.060     2.200     2.319

 Mol. C6AA /au·bohr⁶  :       3865.359253
 Mol. C8AA /au·bohr⁸  :     102222.581571
 Mol. α(0) /au        :         96.241895


Wiberg/Mayer (AO) data.
largest (>0.10) Wiberg bond orders for each atom

 ---------------------------------------------------------------------------
     #   Z sym  total        # sym  WBO       # sym  WBO       # sym  WBO
 ---------------------------------------------------------------------------
     1   6 C    3.993 --     2 C    1.054    11 H    0.973    10 H    0.966
                            12 H    0.958
     2   6 C    3.936 --     3 C    1.279     1 C    1.054     7 N    0.765
                             8 S    0.655
     3   6 C    3.975 --     4 C    1.537     2 C    1.279    13 H    0.952
     4   6 C    3.966 --     3 C    1.537     5 N    1.216    14 H    0.966
     5   7 N    3.663 --     7 N    1.220     4 C    1.216     6 C    0.987
                             8 S    0.121
     6   6 C    3.964 --     5 N    0.987    15 H    0.979    17 H    0.978
                            16 H    0.969
     7   7 N    2.962 --     5 N    1.220     2 C    0.765     8 S    0.666
                             9 O    0.113
     8  16 S    3.449 --     9 O    1.801     7 N    0.666     2 C    0.655
                             5 N    0.121
     9   8 O    2.086 --     8 S    1.801     7 N    0.113
    10   1 H    0.996 --     1 C    0.966
    11   1 H    0.995 --     1 C    0.973
    12   1 H    0.994 --     1 C    0.958
    13   1 H    0.997 --     3 C    0.952
    14   1 H    0.998 --     4 C    0.966
    15   1 H    0.994 --     6 C    0.979
    16   1 H    0.994 --     6 C    0.969
    17   1 H    0.996 --     6 C    0.978
 ---------------------------------------------------------------------------

Topologies differ in total number of bonds
Writing topology from bond orders to xtbtopo.mol

molecular dipole:
                 x           y           z       tot (Debye)
 q only:       -0.282      -1.163       0.309
   full:       -0.126      -1.145      -0.119       2.944
molecular quadrupole (traceless):
                xx          xy          yy          xz          yz          zz
 q only:       10.288      -5.169      -9.155       0.144       4.100      -1.133
  q+dip:       11.078      -5.054      -9.561       0.649       4.233      -1.517
   full:       10.848      -5.009      -8.554       0.717       4.099      -2.294

           -------------------------------------------------
          |                Geometry Summary                 |
           -------------------------------------------------

      molecular mass/u    :      144.1948042
   center of mass at/Å    :       -0.0202283       0.5385571       0.1072877
  moments of inertia/u·Å² :        0.2481620E+03   0.3569738E+03   0.4399685E+03
rotational constants/cm⁻¹ :        0.6792994E-01   0.4722372E-01   0.3831554E-01

 * 14 selected distances

     #   Z          #   Z                                           value/Å
     1   6 C        2   6 C                                       1.4715850 (max)
     2   6 C        3   6 C                                       1.4038194
     3   6 C        4   6 C                                       1.3657859
     4   6 C        5   7 N                                       1.3577350
     5   7 N        6   6 C                                       1.4398220
     5   7 N        7   7 N                                       1.3202758
     1   6 C       10   1 H                                       1.0906430
     1   6 C       11   1 H                                       1.0865228
     1   6 C       12   1 H                                       1.0907143
     3   6 C       13   1 H                                       1.0735446 (min)
     4   6 C       14   1 H                                       1.0741523
     6   6 C       15   1 H                                       1.0889621
     6   6 C       16   1 H                                       1.0930860
     6   6 C       17   1 H                                       1.0897976

 * 4 distinct bonds (by element types)

   Z      Z             #   av. dist./Å        max./Å        min./Å
   1 H    6 C           8     1.0859278     1.0930860     1.0735446
   6 C    6 C           3     1.4137301     1.4715850     1.3657859
   6 C    7 N           2     1.3987785     1.4398220     1.3577350
   7 N    7 N           1     1.3202758     1.3202758     1.3202758


optimized geometry written to: xtbopt.xyz


           -------------------------------------------------
          | TOTAL ENERGY              -27.841113124361 Eh   |
          | GRADIENT NORM               0.000602866935 Eh/α |
          | HOMO-LUMO GAP               2.304330524081 eV   |
           -------------------------------------------------

------------------------------------------------------------------------
 * finished run on 2026/08/20 at 02:40:50.709     
------------------------------------------------------------------------
 total:
 * wall-time:     0 d,  0 h,  1 min, 29.885 sec
 *  cpu-time:     0 d,  0 h,  3 min, 52.627 sec
 * ratio c/w:     2.588 speedup
 SCF:
 * wall-time:     0 d,  0 h,  0 min,  2.047 sec
 *  cpu-time:     0 d,  0 h,  0 min,  8.891 sec
 * ratio c/w:     4.343 speedup
 ANC optimizer:
 * wall-time:     0 d,  0 h,  1 min, 27.640 sec
 *  cpu-time:     0 d,  0 h,  3 min, 43.297 sec
 * ratio c/w:     2.548 speedup

