17
 energy: -27.838667913345 gnorm: 0.000608360484 xtb: 6.7.1 (edcfbbe)
C            1.57937869743997       -1.09126979653290        0.52813965236099
C            0.80156706555767       -0.31256646279101       -0.45296003406097
C            1.10905089317711        0.73688309118673       -1.29775273197766
C            0.03333933469394        1.58947617380943       -1.53060259984035
N           -1.03614154989859        1.39018420541502       -0.77858681180891
N           -0.94133080496406        0.30500217838113       -0.07521410057041
C           -1.67462836685466        0.11079592622549        1.13484982269652
S           -0.78345400048116       -1.42667613392975       -1.24097390661405
O           -0.97157008277589       -0.95399386504241       -2.62353813302845
H            2.21365906213757       -1.81094442019797        0.00898623717728
H            0.91977190171629       -1.64545324921051        1.19211208621636
H            2.21195759763838       -0.43502587014275        1.12639830175301
H            2.09184236451423        0.93045318438447       -1.68337311286305
H            0.04103140138838        2.43744358476638       -2.18891605431829
H           -2.74695230720644        0.15932546940786        0.93168720930634
H           -1.43235943529648       -0.86844011533379        1.54402021050748
H           -1.41516176075344        0.88480610959388        1.86190668506661
