      -----------------------------------------------------------      
     |                   =====================                   |     
     |                           x T B                           |     
     |                   =====================                   |     
     |                         S. Grimme                         |     
     |          Mulliken Center for Theoretical Chemistry        |     
     |                    University of Bonn                     |     
      -----------------------------------------------------------      

   * xtb version 6.7.1 (edcfbbe) compiled by 'conda@3ef47c1a292c' on 2024-11-25

   xtb is free software: you can redistribute it and/or modify it under
   the terms of the GNU Lesser General Public License as published by
   the Free Software Foundation, either version 3 of the License, or
   (at your option) any later version.
   
   xtb is distributed in the hope that it will be useful,
   but WITHOUT ANY WARRANTY; without even the implied warranty of
   MERCHANTABILITY or FITNESS FOR A PARTICULAR PURPOSE.  See the
   GNU Lesser General Public License for more details.
   
   Cite this work as:
   * C. Bannwarth, E. Caldeweyher, S. Ehlert, A. Hansen, P. Pracht,
     J. Seibert, S. Spicher, S. Grimme, WIREs Comput. Mol. Sci., 2020, 11,
     e01493. DOI: 10.1002/wcms.1493
   
   for GFN2-xTB:
   * C. Bannwarth, S. Ehlert and S. Grimme., J. Chem. Theory Comput., 2019,
     15, 1652-1671. DOI: 10.1021/acs.jctc.8b01176
   for GFN1-xTB:
   * S. Grimme, C. Bannwarth, P. Shushkov, J. Chem. Theory Comput., 2017,
     13, 1989-2009. DOI: 10.1021/acs.jctc.7b00118
   for GFN0-xTB:
   * P. Pracht, E. Caldeweyher, S. Ehlert, S. Grimme, ChemRxiv, 2019, preprint.
     DOI: 10.26434/chemrxiv.8326202.v1
   for GFN-FF:
   * S. Spicher and S. Grimme, Angew. Chem. Int. Ed., 2020, 59, 15665-15673.
     DOI: 10.1002/anie.202004239
   
   for ALPB and GBSA implicit solvation:
   * S. Ehlert, M. Stahn, S. Spicher, S. Grimme, J. Chem. Theory Comput.,
     2021, 17, 4250-4261. DOI: 10.1021/acs.jctc.1c00471
   
   for ddCOSMO and CPCM-X implicit solvation:
   * M. Stahn, S. Ehlert, S. Grimme, J. Phys. Chem. A,
     2023, XX, XXXX-XXXX. DOI: 10.1021/acs.jpca.3c04382
   
   for DFT-D4:
   * E. Caldeweyher, C. Bannwarth and S. Grimme, J. Chem. Phys., 2017,
     147, 034112. DOI: 10.1063/1.4993215
   * E. Caldeweyher, S. Ehlert, A. Hansen, H. Neugebauer, S. Spicher,
     C. Bannwarth and S. Grimme, J. Chem. Phys., 2019, 150, 154122.
     DOI: 10.1063/1.5090222
   * E. Caldeweyher, J.-M. Mewes, S. Ehlert and S. Grimme, Phys. Chem. Chem. Phys.
     2020, 22, 8499-8512. DOI: 10.1039/D0CP00502A
   
   for sTDA-xTB:
   * S. Grimme and C. Bannwarth, J. Chem. Phys., 2016, 145, 054103.
     DOI: 10.1063/1.4959605
   
   in the mass-spec context:
   * V. Asgeirsson, C. Bauer and S. Grimme, Chem. Sci., 2017, 8, 4879.
     DOI: 10.1039/c7sc00601b
   * J. Koopman and S. Grimme, ACS Omega 2019, 4, 12, 15120-15133.
     DOI: 10.1021/acsomega.9b02011
   
   for metadynamics refer to:
   * S. Grimme, J. Chem. Theory Comput., 2019, 155, 2847-2862
     DOI: 10.1021/acs.jctc.9b00143
   
   for SPH calculations refer to:
   * S. Spicher and S. Grimme, J. Chem. Theory Comput., 2021, 17, 1701-1714
     DOI: 10.1021/acs.jctc.0c01306
   
   for ONIOM refer to:
   * C. Plett, A. Katbashev, S. Ehlert, S. Grimme, M. Bursch,
     Phys. Chem. Chem. Phys., 2023, 25, 17860-17868. DOI: 10.1039/D3CP02178E
   
   for DIPRO refer to:
   * J. Kohn, N. Gildemeister, S. Grimme, D. Fazzi, A. Hansen,
     J. Chem. Phys., 2023, just accepted.
   
   for PTB refer to:
   * S. Grimme, M. Mueller, A. Hansen, J. Chem. Phys., 2023, 158, 124111.
     DOI: 10.1063/5.0137838
   
   with help from (in alphabetical order)
   P. Atkinson, C. Bannwarth, F. Bohle, G. Brandenburg, E. Caldeweyher
   M. Checinski, S. Dohm, S. Ehlert, S. Ehrlich, I. Gerasimov, C. Hölzer
   A. Katbashev, J. Kohn, J. Koopman, C. Lavigne, S. Lehtola, F. März, M. Müller,
   F. Musil, H. Neugebauer, J. Pisarek, C. Plett, P. Pracht, F. Pultar,
   J. Seibert, P. Shushkov, S. Spicher, M. Stahn, M. Steiner, T. Strunk,
   J. Stückrath, T. Rose, and J. Unsleber
   
 * started run on 2026/08/20 at 02:28:46.756     
   ID    Z sym.   atoms
    1    6 C      1-4, 7
    2    7 N      5, 6
    3   16 S      8
    4    8 O      9
    5    1 H      10-17

           -------------------------------------------------
          |                Calculation Setup                |
           -------------------------------------------------

          program call               : /h/399/yunhengzou/micromamba/envs/el-agente/bin/xtb subA_guess.xyz --opt --gfn 2 -P 4 --chrg 0 --uhf 0
          coordinate file            : subA_guess.xyz
          omp threads                :                     4


           -------------------------------------------------
          |                 G F N 2 - x T B                 |
           -------------------------------------------------

        Reference                      10.1021/acs.jctc.8b01176
      * Hamiltonian:
        H0-scaling (s, p, d)           1.850000    2.230000    2.230000
        zeta-weighting                 0.500000
      * Dispersion:
        s8                             2.700000
        a1                             0.520000
        a2                             5.000000
        s9                             5.000000
      * Repulsion:
        kExp                           1.500000    1.000000
        rExp                           1.000000
      * Coulomb:
        alpha                          2.000000
        third order                    shell-resolved
        anisotropic                    true
        a3                             3.000000
        a5                             4.000000
        cn-shift                       1.200000
        cn-exp                         4.000000
        max-rad                        5.000000


          ...................................................
          :                      SETUP                      :
          :.................................................:
          :  # basis functions                  50          :
          :  # atomic orbitals                  49          :
          :  # shells                           27          :
          :  # electrons                        50          :
          :  max. iterations                   250          :
          :  Hamiltonian                  GFN2-xTB          :
          :  restarted?                      false          :
          :  GBSA solvation                  false          :
          :  PC potential                    false          :
          :  electronic temp.          300.0000000     K    :
          :  accuracy                    1.0000000          :
          :  -> integral cutoff          0.2500000E+02      :
          :  -> integral neglect         0.1000000E-07      :
          :  -> SCF convergence          0.1000000E-05 Eh   :
          :  -> wf. convergence          0.1000000E-03 e    :
          :  Broyden damping             0.4000000          :
          :  net charge                          0          :
          :  unpaired electrons                  0          :
          ...................................................

 iter      E             dE          RMSdq      gap      omega  full diag
   1    -28.0818084 -0.280818E+02  0.460E+00    2.66       0.0  T
   2    -28.1290719 -0.472635E-01  0.339E+00    2.78       1.0  T
   3    -28.1376368 -0.856492E-02  0.156E+00    2.54       1.0  T
   4    -28.1437137 -0.607687E-02  0.773E-01    2.63       1.0  T
   5    -28.1488202 -0.510653E-02  0.270E-01    2.56       1.0  T
   6    -28.1488171  0.306818E-05  0.641E-02    2.56       1.0  T
   7    -28.1488420 -0.248282E-04  0.408E-02    2.56       1.0  T
   8    -28.1488528 -0.107881E-04  0.217E-02    2.56       1.1  T
   9    -28.1488535 -0.757834E-06  0.502E-03    2.56       4.8  T
  10    -28.1488536 -0.934567E-07  0.253E-03    2.56       9.6  T
  11    -28.1488536 -0.453758E-08  0.858E-04    2.56      28.3  T
  12    -28.1488536 -0.451250E-08  0.292E-04    2.56      83.0  T

   *** convergence criteria satisfied after 12 iterations ***

         #    Occupation            Energy/Eh            Energy/eV
      -------------------------------------------------------------
         1        2.0000           -0.7572615             -20.6061
       ...           ...                  ...                  ...
        19        2.0000           -0.4739428             -12.8966
        20        2.0000           -0.4670478             -12.7090
        21        2.0000           -0.4372591             -11.8984
        22        2.0000           -0.4212086             -11.4617
        23        2.0000           -0.3909954             -10.6395
        24        2.0000           -0.3816787             -10.3860
        25        2.0000           -0.3724695             -10.1354 (HOMO)
        26                         -0.2783631              -7.5746 (LUMO)
        27                         -0.2194499              -5.9715
        28                         -0.1970416              -5.3618
        29                         -0.1517970              -4.1306
        30                         -0.0979737              -2.6660
       ...                                ...                  ...
        49                          0.7711938              20.9853
      -------------------------------------------------------------
                  HL-Gap            0.0941064 Eh            2.5608 eV
             Fermi-level           -0.3254163 Eh           -8.8550 eV

 SCC (total)                   0 d,  0 h,  0 min,  3.608 sec
 SCC setup                      ...        0 min,  0.024 sec (  0.662%)
 Dispersion                     ...        0 min,  0.084 sec (  2.341%)
 classical contributions        ...        0 min,  0.032 sec (  0.877%)
 integral evaluation            ...        0 min,  0.076 sec (  2.101%)
 iterations                     ...        0 min,  3.253 sec ( 90.158%)
 molecular gradient             ...        0 min,  0.139 sec (  3.855%)
 printout                       ...        0 min,  0.000 sec (  0.005%)

         :::::::::::::::::::::::::::::::::::::::::::::::::::::
         ::                     SUMMARY                     ::
         :::::::::::::::::::::::::::::::::::::::::::::::::::::
         :: total energy             -27.866495844313 Eh    ::
         :: gradient norm              0.122871704268 Eh/a0 ::
         :: HOMO-LUMO gap              2.560765514789 eV    ::
         ::.................................................::
         :: SCC energy               -28.148808092135 Eh    ::
         :: -> isotropic ES            0.051598433228 Eh    ::
         :: -> anisotropic ES          0.000964496480 Eh    ::
         :: -> anisotropic XC          0.018691181093 Eh    ::
         :: -> dispersion             -0.014925523828 Eh    ::
         :: repulsion energy           0.282312247822 Eh    ::
         :: add. restraining           0.000000000000 Eh    ::
         :: total charge               0.000000000000 e     ::
         :::::::::::::::::::::::::::::::::::::::::::::::::::::

      ----------------------------------------------------------- 
     |                   =====================                   |
     |                        A N C O P T                        |
     |                   =====================                   |
     |               Approximate Normal Coordinate               |
     |                Rational Function Optimizer                |
      ----------------------------------------------------------- 
      ----------------------------------------------------------- 
     |                   =====================                   |
     |                        A N C O P T                        |
     |                   =====================                   |
     |               Approximate Normal Coordinate               |
     |                Rational Function Optimizer                |
      ----------------------------------------------------------- 

          ...................................................
          :                      SETUP                      :
          :.................................................:
          :   optimization level            normal          :
          :   max. optcycles                   200          :
          :   ANC micro-cycles                  20          :
          :   degrees of freedom                45          :
          :.................................................:
          :   RF solver                   davidson          :
          :   write xtbopt.log                true          :
          :   linear?                        false          :
          :   energy convergence         0.5000000E-05 Eh   :
          :   grad. convergence          0.1000000E-02 Eh/α :
          :   maxmium RF displ.          1.0000000          :
          :   Hlow (freq-cutoff)         0.1000000E-01      :
          :   Hmax (freq-cutoff)         5.0000000          :
          :   S6 in model hess.         20.0000000          :
          ...................................................

generating ANC from exact Hessian ...
Using Lindh-Hessian (1995)
 Shifting diagonal of input Hessian by    6.1679866191976813E-003
 Lowest  eigenvalues of input Hessian
    0.000000    0.000000    0.000000    0.000000    0.000000    0.000000
    0.010000    0.012651    0.014533    0.016152    0.017834    0.021821
    0.027972    0.031741    0.038830    0.050679    0.055124    0.066365
 Highest eigenvalues
    1.355908    1.436854    1.582214    1.877431    2.003311    2.113491


........................................................................
.............................. CYCLE    1 ..............................
........................................................................

 iter      E             dE          RMSdq      gap      omega  full diag
   1    -28.1488536 -0.281489E+02  0.840E-05    2.56       0.0  T
   2    -28.1488536 -0.931522E-11  0.541E-05    2.56     447.9  T
   3    -28.1488536 -0.158806E-11  0.403E-05    2.56     601.7  T
     SCC iter.                  ...        0 min,  0.459 sec
     gradient                   ...        0 min,  0.345 sec
 * total energy  :   -27.8664958 Eh     change       -0.1382006E-09 Eh
   gradient norm :     0.1228698 Eh/α   predicted     0.0000000E+00 (-100.00%)
   displ. norm   :     0.3430803 α      lambda       -0.2128770E-01
   maximum displ.:     0.1562728 α      in ANC's #9, #26, #10, ...

........................................................................
.............................. CYCLE    2 ..............................
........................................................................

 iter      E             dE          RMSdq      gap      omega  full diag
   1    -28.1894219 -0.281894E+02  0.454E-01    2.63       0.0  T
   2    -28.1897970 -0.375117E-03  0.313E-01    2.71       1.0  T
   3    -28.1902835 -0.486515E-03  0.170E-01    2.67       1.0  T
   4    -28.1903894 -0.105843E-03  0.657E-02    2.69       1.0  T
   5    -28.1904139 -0.245065E-04  0.251E-02    2.69       1.0  T
   6    -28.1904177 -0.381820E-05  0.138E-02    2.69       1.8  T
   7    -28.1904190 -0.129521E-05  0.311E-03    2.69       7.8  T
   8    -28.1904190 -0.161747E-07  0.155E-03    2.69      15.6  T
   9    -28.1904190 -0.314858E-08  0.459E-04    2.69      52.8  T
  10    -28.1904190 -0.255547E-09  0.170E-04    2.69     142.9  T
     SCC iter.                  ...        0 min,  2.982 sec
     gradient                   ...        0 min,  0.455 sec
 * total energy  :   -27.8816800 Eh     change       -0.1518413E-01 Eh
   gradient norm :     0.0694733 Eh/α   predicted    -0.1189668E-01 ( -21.65%)
   displ. norm   :     0.3003325 α      lambda       -0.8306253E-02
   maximum displ.:     0.1490934 α      in ANC's #9, #6, #10, ...

........................................................................
.............................. CYCLE    3 ..............................
........................................................................

 iter      E             dE          RMSdq      gap      omega  full diag
   1    -28.2112997 -0.282113E+02  0.414E-01    2.69       0.0  T
   2    -28.2117381 -0.438366E-03  0.331E-01    2.78       1.0  T
   3    -28.2126529 -0.914851E-03  0.137E-01    2.74       1.0  T
   4    -28.2126585 -0.559114E-05  0.728E-02    2.75       1.0  T
   5    -28.2126873 -0.287873E-04  0.260E-02    2.75       1.0  T
   6    -28.2126940 -0.668454E-05  0.110E-02    2.75       2.2  T
   7    -28.2126945 -0.516833E-06  0.236E-03    2.75      10.3  T
   8    -28.2126945 -0.106909E-07  0.106E-03    2.75      22.9  T
   9    -28.2126945 -0.189122E-08  0.358E-04    2.75      67.8  T
  10    -28.2126945 -0.178840E-09  0.145E-04    2.75     167.2  T
     SCC iter.                  ...        0 min,  2.835 sec
     gradient                   ...        0 min,  0.251 sec
 * total energy  :   -27.8862016 Eh     change       -0.4521590E-02 Eh
   gradient norm :     0.0196046 Eh/α   predicted    -0.4527736E-02 (   0.14%)
   displ. norm   :     0.1635279 α      lambda       -0.8473621E-03
   maximum displ.:     0.0802797 α      in ANC's #5, #6, #4, ...

........................................................................
.............................. CYCLE    4 ..............................
........................................................................

 iter      E             dE          RMSdq      gap      omega  full diag
   1    -28.2107585 -0.282108E+02  0.130E-01    2.74       0.0  T
   2    -28.2107870 -0.285317E-04  0.736E-02    2.75       1.0  T
   3    -28.2107872 -0.171962E-06  0.364E-02    2.75       1.0  T
   4    -28.2107852  0.195920E-05  0.226E-02    2.75       1.1  T
   5    -28.2107918 -0.654914E-05  0.550E-03    2.75       4.4  T
   6    -28.2107918 -0.125377E-07  0.123E-03    2.75      19.7  T
   7    -28.2107918 -0.688539E-08  0.562E-04    2.75      43.2  T
   8    -28.2107918 -0.213046E-08  0.292E-04    2.75      83.1  T
     SCC iter.                  ...        0 min,  1.489 sec
     gradient                   ...        0 min,  0.112 sec
 * total energy  :   -27.8867854 Eh     change       -0.5837942E-03 Eh
   gradient norm :     0.0070957 Eh/α   predicted    -0.4350112E-03 ( -25.49%)
   displ. norm   :     0.1337628 α      lambda       -0.2730905E-03
   maximum displ.:     0.0691256 α      in ANC's #6, #4, #5, ...

........................................................................
.............................. CYCLE    5 ..............................
........................................................................

 iter      E             dE          RMSdq      gap      omega  full diag
   1    -28.2093509 -0.282094E+02  0.916E-02    2.75       0.0  T
   2    -28.2093608 -0.994103E-05  0.501E-02    2.75       1.0  T
   3    -28.2093605  0.342413E-06  0.218E-02    2.75       1.1  T
   4    -28.2093617 -0.119815E-05  0.104E-02    2.75       2.3  T
   5    -28.2093627 -0.103737E-05  0.419E-03    2.75       5.8  T
   6    -28.2093628 -0.218935E-07  0.196E-03    2.75      12.4  T
   7    -28.2093628 -0.555829E-07  0.467E-04    2.75      52.0  T
   8    -28.2093628 -0.306930E-09  0.195E-04    2.75     124.4  T
     SCC iter.                  ...        0 min,  1.571 sec
     gradient                   ...        0 min,  0.236 sec
 * total energy  :   -27.8869354 Eh     change       -0.1500904E-03 Eh
   gradient norm :     0.0029569 Eh/α   predicted    -0.1389880E-03 (  -7.40%)
   displ. norm   :     0.0437652 α      lambda       -0.2728905E-04
   maximum displ.:     0.0248450 α      in ANC's #1, #4, #5, ...

........................................................................
.............................. CYCLE    6 ..............................
........................................................................

 iter      E             dE          RMSdq      gap      omega  full diag
   1    -28.2097429 -0.282097E+02  0.215E-02    2.76       0.0  T
   2    -28.2097430 -0.901733E-07  0.127E-02    2.76       1.9  T
   3    -28.2097422  0.825230E-06  0.929E-03    2.76       2.6  T
   4    -28.2097433 -0.117098E-05  0.180E-03    2.76      13.5  T
   5    -28.2097433  0.257678E-08  0.686E-04    2.76      35.4  T
   6    -28.2097433 -0.456906E-08  0.224E-04    2.76     108.5  T
     SCC iter.                  ...        0 min,  2.476 sec
     gradient                   ...        0 min,  0.302 sec
 * total energy  :   -27.8869571 Eh     change       -0.2165885E-04 Eh
   gradient norm :     0.0020362 Eh/α   predicted    -0.1366988E-04 ( -36.89%)
   displ. norm   :     0.0822310 α      lambda       -0.3581020E-04
   maximum displ.:     0.0615446 α      in ANC's #1, #4, #6, ...

........................................................................
.............................. CYCLE    7 ..............................
........................................................................

 iter      E             dE          RMSdq      gap      omega  full diag
   1    -28.2104421 -0.282104E+02  0.345E-02    2.77       0.0  T
   2    -28.2104426 -0.481300E-06  0.209E-02    2.76       1.2  T
   3    -28.2104409  0.167069E-05  0.143E-02    2.77       1.7  T
   4    -28.2104434 -0.246275E-05  0.316E-03    2.76       7.7  T
   5    -28.2104434 -0.301863E-07  0.147E-03    2.76      16.5  T
   6    -28.2104434 -0.314447E-08  0.246E-04    2.76      98.7  T
   7    -28.2104434 -0.728448E-10  0.134E-04    2.76     181.5  T
     SCC iter.                  ...        0 min,  1.778 sec
     gradient                   ...        0 min,  0.239 sec
 * total energy  :   -27.8869819 Eh     change       -0.2481868E-04 Eh
   gradient norm :     0.0012228 Eh/α   predicted    -0.1802532E-04 ( -27.37%)
   displ. norm   :     0.0888377 α      lambda       -0.1604932E-04
   maximum displ.:     0.0770655 α      in ANC's #1, #4, #6, ...

........................................................................
.............................. CYCLE    8 ..............................
........................................................................

 iter      E             dE          RMSdq      gap      omega  full diag
   1    -28.2107188 -0.282107E+02  0.337E-02    2.77       0.0  T
   2    -28.2107191 -0.319559E-06  0.197E-02    2.77       1.2  T
   3    -28.2107175  0.163985E-05  0.130E-02    2.77       1.9  T
   4    -28.2107195 -0.206322E-05  0.263E-03    2.77       9.2  T
   5    -28.2107196 -0.236445E-07  0.129E-03    2.77      18.8  T
   6    -28.2107196 -0.182695E-08  0.475E-04    2.77      51.1  T
   7    -28.2107196 -0.277488E-08  0.172E-04    2.77     140.6  T
     SCC iter.                  ...        0 min,  1.828 sec
     gradient                   ...        0 min,  0.249 sec
 * total energy  :   -27.8870015 Eh     change       -0.1959828E-04 Eh
   gradient norm :     0.0021015 Eh/α   predicted    -0.8052782E-05 ( -58.91%)
   displ. norm   :     0.0438142 α      lambda       -0.1463568E-04
   maximum displ.:     0.0382774 α      in ANC's #1, #2, #4, ...

........................................................................
.............................. CYCLE    9 ..............................
........................................................................

 iter      E             dE          RMSdq      gap      omega  full diag
   1    -28.2106714 -0.282107E+02  0.150E-02    2.77       0.0  T
   2    -28.2106714 -0.507365E-07  0.853E-03    2.77       2.8  T
   3    -28.2106713  0.136047E-06  0.355E-03    2.77       6.8  T
   4    -28.2106715 -0.161675E-06  0.102E-03    2.77      23.8  T
   5    -28.2106715 -0.371167E-08  0.561E-04    2.77      43.2  T
   6    -28.2106715 -0.101689E-08  0.239E-04    2.77     101.3  T
     SCC iter.                  ...        0 min,  1.388 sec
     gradient                   ...        0 min,  0.252 sec
 * total energy  :   -27.8870155 Eh     change       -0.1393855E-04 Eh
   gradient norm :     0.0018422 Eh/α   predicted    -0.7329527E-05 ( -47.42%)
   displ. norm   :     0.1144090 α      lambda       -0.2572501E-04
   maximum displ.:     0.0921091 α      in ANC's #1, #2, #4, ...

........................................................................
.............................. CYCLE   10 ..............................
........................................................................

 iter      E             dE          RMSdq      gap      omega  full diag
   1    -28.2102492 -0.282102E+02  0.392E-02    2.77       0.0  T
   2    -28.2102500 -0.795224E-06  0.226E-02    2.77       1.1  T
   3    -28.2102496  0.384676E-06  0.855E-03    2.77       2.8  T
   4    -28.2102500 -0.389119E-06  0.403E-03    2.77       6.0  T
   5    -28.2102502 -0.169314E-06  0.181E-03    2.77      13.4  T
   6    -28.2102502 -0.763750E-08  0.572E-04    2.77      42.4  T
   7    -28.2102502 -0.345151E-08  0.258E-04    2.77      94.0  T
     SCC iter.                  ...        0 min,  2.782 sec
     gradient                   ...        0 min,  0.353 sec
 * total energy  :   -27.8870496 Eh     change       -0.3415595E-04 Eh
   gradient norm :     0.0012262 Eh/α   predicted    -0.1293645E-04 ( -62.13%)
   displ. norm   :     0.2017059 α      lambda       -0.3671585E-04
   maximum displ.:     0.1530728 α      in ANC's #1, #2, #4, ...

........................................................................
.............................. CYCLE   11 ..............................
........................................................................

 iter      E             dE          RMSdq      gap      omega  full diag
   1    -28.2094495 -0.282094E+02  0.698E-02    2.77       0.0  T
   2    -28.2094519 -0.231529E-05  0.397E-02    2.77       1.0  T
   3    -28.2094495  0.233671E-05  0.179E-02    2.77       1.4  T
   4    -28.2094520 -0.251282E-05  0.771E-03    2.77       3.1  T
   5    -28.2094526 -0.561993E-06  0.326E-03    2.77       7.4  T
   6    -28.2094526 -0.223017E-07  0.657E-04    2.77      36.9  T
   7    -28.2094526 -0.890381E-09  0.429E-04    2.77      56.5  T
     SCC iter.                  ...        0 min,  1.219 sec
     gradient                   ...        0 min,  0.241 sec
 * total energy  :   -27.8870980 Eh     change       -0.4838558E-04 Eh
   gradient norm :     0.0021410 Eh/α   predicted    -0.1868866E-04 ( -61.38%)
   displ. norm   :     0.3680353 α      lambda       -0.8562620E-04
   maximum displ.:     0.2742097 α      in ANC's #1, #2, #4, ...

........................................................................
.............................. CYCLE   12 ..............................
........................................................................

 iter      E             dE          RMSdq      gap      omega  full diag
   1    -28.2072651 -0.282073E+02  0.128E-01    2.77       0.0  T
   2    -28.2072714 -0.632232E-05  0.717E-02    2.77       1.0  T
   3    -28.2072627  0.875847E-05  0.323E-02    2.77       1.0  T
   4    -28.2072725 -0.986841E-05  0.128E-02    2.77       1.9  T
   5    -28.2072738 -0.123294E-05  0.573E-03    2.77       4.2  T
   6    -28.2072738 -0.656792E-07  0.146E-03    2.77      16.6  T
   7    -28.2072738 -0.134345E-07  0.851E-04    2.77      28.5  T
   8    -28.2072738 -0.251361E-08  0.324E-04    2.77      74.9  T
     SCC iter.                  ...        0 min,  2.946 sec
     gradient                   ...        0 min,  0.131 sec
 * total energy  :   -27.8871469 Eh     change       -0.4889016E-04 Eh
   gradient norm :     0.0057002 Eh/α   predicted    -0.4861357E-04 (  -0.57%)
   displ. norm   :     0.0652731 α      lambda       -0.4428373E-04
   maximum displ.:     0.0471940 α      in ANC's #1, #2, #4, ...

........................................................................
.............................. CYCLE   13 ..............................
........................................................................

 iter      E             dE          RMSdq      gap      omega  full diag
   1    -28.2083303 -0.282083E+02  0.249E-02    2.77       0.0  T
   2    -28.2083307 -0.396227E-06  0.141E-02    2.77       1.7  T
   3    -28.2083305  0.216762E-06  0.616E-03    2.77       3.9  T
   4    -28.2083307 -0.246261E-06  0.288E-03    2.77       8.4  T
   5    -28.2083308 -0.793371E-07  0.126E-03    2.77      19.2  T
   6    -28.2083308 -0.907750E-09  0.578E-04    2.77      42.0  T
   7    -28.2083308 -0.442703E-08  0.164E-04    2.77     147.8  T
     SCC iter.                  ...        0 min,  1.480 sec
     gradient                   ...        0 min,  0.164 sec
 * total energy  :   -27.8871834 Eh     change       -0.3646045E-04 Eh
   gradient norm :     0.0039794 Eh/α   predicted    -0.2223722E-04 ( -39.01%)
   displ. norm   :     0.3647974 α      lambda       -0.1122811E-03
   maximum displ.:     0.2602797 α      in ANC's #1, #2, #4, ...

........................................................................
.............................. CYCLE   14 ..............................
........................................................................

 iter      E             dE          RMSdq      gap      omega  full diag
   1    -28.2084301 -0.282084E+02  0.129E-01    2.78       0.0  T
   2    -28.2084350 -0.486079E-05  0.718E-02    2.78       1.0  T
   3    -28.2084244  0.105957E-04  0.332E-02    2.78       1.0  T
   4    -28.2084367 -0.123064E-04  0.121E-02    2.78       2.0  T
   5    -28.2084376 -0.849824E-06  0.572E-03    2.78       4.2  T
   6    -28.2084376 -0.634352E-07  0.220E-03    2.78      11.0  T
   7    -28.2084377 -0.583446E-07  0.799E-04    2.78      30.4  T
   8    -28.2084377 -0.641094E-09  0.231E-04    2.78     105.1  T
     SCC iter.                  ...        0 min,  1.663 sec
     gradient                   ...        0 min,  0.195 sec
 * total energy  :   -27.8872701 Eh     change       -0.8674579E-04 Eh
   gradient norm :     0.0040853 Eh/α   predicted    -0.6361459E-04 ( -26.67%)
   displ. norm   :     0.3372874 α      lambda       -0.1682921E-03
   maximum displ.:     0.2104874 α      in ANC's #1, #4, #2, ...

........................................................................
.............................. CYCLE   15 ..............................
........................................................................

 iter      E             dE          RMSdq      gap      omega  full diag
   1    -28.2107556 -0.282108E+02  0.117E-01    2.78       0.0  T
   2    -28.2107589 -0.330900E-05  0.667E-02    2.78       1.0  T
   3    -28.2107452  0.137044E-04  0.353E-02    2.78       1.0  T
   4    -28.2107617 -0.164904E-04  0.965E-03    2.78       2.5  T
   5    -28.2107621 -0.354503E-06  0.509E-03    2.78       4.8  T
   6    -28.2107622 -0.137945E-06  0.194E-03    2.78      12.5  T
   7    -28.2107622 -0.398268E-07  0.550E-04    2.78      44.1  T
   8    -28.2107622 -0.116945E-09  0.173E-04    2.78     140.5  T
     SCC iter.                  ...        0 min,  1.859 sec
     gradient                   ...        0 min,  0.258 sec
 * total energy  :   -27.8873883 Eh     change       -0.1182103E-03 Eh
   gradient norm :     0.0035439 Eh/α   predicted    -0.9372024E-04 ( -20.72%)
   displ. norm   :     0.6610002 α      lambda       -0.1851872E-03
   maximum displ.:     0.4222980 α      in ANC's #1, #2, #4, ...

........................................................................
.............................. CYCLE   16 ..............................
........................................................................

 iter      E             dE          RMSdq      gap      omega  full diag
   1    -28.2031002 -0.282031E+02  0.235E-01    2.79       0.0  T
   2    -28.2031215 -0.212620E-04  0.128E-01    2.79       1.0  T
   3    -28.2030980  0.234884E-04  0.531E-02    2.79       1.0  T
   4    -28.2031257 -0.277274E-04  0.212E-02    2.79       1.1  T
   5    -28.2031280 -0.224807E-05  0.953E-03    2.79       2.5  T
   6    -28.2031282 -0.247185E-06  0.443E-03    2.79       5.5  T
   7    -28.2031285 -0.246639E-06  0.144E-03    2.79      16.9  T
   8    -28.2031285 -0.140679E-08  0.338E-04    2.79      71.8  T
   9    -28.2031285 -0.169404E-09  0.154E-04    2.79     157.2  T
     SCC iter.                  ...        0 min,  2.508 sec
     gradient                   ...        0 min,  0.287 sec
 * total energy  :   -27.8872049 Eh     change        0.1834065E-03 Eh
   gradient norm :     0.0176435 Eh/α   predicted    -0.1330482E-03 (-172.54%)
   displ. norm   :     0.2581275 α      lambda       -0.7839516E-03
   maximum displ.:     0.2018555 α      in ANC's #1, #4, #2, ...

........................................................................
.............................. CYCLE   17 ..............................
........................................................................

 iter      E             dE          RMSdq      gap      omega  full diag
   1    -28.2117608 -0.282118E+02  0.131E-01    2.78       0.0  T
   2    -28.2117728 -0.120306E-04  0.674E-02    2.78       1.0  T
   3    -28.2117726  0.218959E-06  0.215E-02    2.78       1.1  T
   4    -28.2117728 -0.185960E-06  0.120E-02    2.78       2.0  T
   5    -28.2117739 -0.110715E-05  0.605E-03    2.78       4.0  T
   6    -28.2117741 -0.201454E-06  0.140E-03    2.78      17.4  T
   7    -28.2117741 -0.720054E-08  0.899E-04    2.78      27.0  T
   8    -28.2117741 -0.282660E-08  0.326E-04    2.78      74.3  T
     SCC iter.                  ...        0 min,  3.336 sec
     gradient                   ...        0 min,  0.271 sec
 * total energy  :   -27.8875320 Eh     change       -0.3271049E-03 Eh
   gradient norm :     0.0045562 Eh/α   predicted    -0.4180941E-03 (  27.82%)
   displ. norm   :     0.1397301 α      lambda       -0.7646720E-04
   maximum displ.:     0.0787884 α      in ANC's #2, #4, #1, ...

........................................................................
.............................. CYCLE   18 ..............................
........................................................................

 iter      E             dE          RMSdq      gap      omega  full diag
   1    -28.2114060 -0.282114E+02  0.455E-02    2.78       0.0  T
   2    -28.2114067 -0.716116E-06  0.262E-02    2.78       1.0  T
   3    -28.2114055  0.124742E-05  0.116E-02    2.78       2.1  T
   4    -28.2114070 -0.158488E-05  0.322E-03    2.78       7.5  T
   5    -28.2114071 -0.594497E-07  0.122E-03    2.78      19.8  T
   6    -28.2114071  0.121476E-08  0.630E-04    2.78      38.5  T
   7    -28.2114071 -0.460809E-08  0.213E-04    2.78     113.8  T
     SCC iter.                  ...        0 min,  1.730 sec
     gradient                   ...        0 min,  0.419 sec
 * total energy  :   -27.8876013 Eh     change       -0.6929196E-04 Eh
   gradient norm :     0.0034119 Eh/α   predicted    -0.3898014E-04 ( -43.75%)
   displ. norm   :     0.7232640 α      lambda       -0.3347386E-03
   maximum displ.:     0.4299175 α      in ANC's #2, #4, #1, ...

........................................................................
.............................. CYCLE   19 ..............................
........................................................................

 iter      E             dE          RMSdq      gap      omega  full diag
   1    -28.2018747 -0.282019E+02  0.241E-01    2.77       0.0  T
   2    -28.2018967 -0.219630E-04  0.134E-01    2.77       1.0  T
   3    -28.2018750  0.216709E-04  0.506E-02    2.77       1.0  T
   4    -28.2019032 -0.281631E-04  0.189E-02    2.77       1.3  T
   5    -28.2019044 -0.123683E-05  0.629E-03    2.77       3.9  T
   6    -28.2019045 -0.392159E-07  0.222E-03    2.77      10.9  T
   7    -28.2019045 -0.261256E-07  0.146E-03    2.77      16.7  T
   8    -28.2019045 -0.113334E-07  0.429E-04    2.77      56.5  T
   9    -28.2019045 -0.260016E-09  0.188E-04    2.77     128.9  T
     SCC iter.                  ...        0 min,  1.600 sec
     gradient                   ...        0 min,  0.268 sec
 * total energy  :   -27.8874749 Eh     change        0.1263603E-03 Eh
   gradient norm :     0.0193902 Eh/α   predicted    -0.2549299E-03 (-301.75%)
   displ. norm   :     0.3336231 α      lambda       -0.8437440E-03
   maximum displ.:     0.2033568 α      in ANC's #2, #4, #1, ...

........................................................................
.............................. CYCLE   20 ..............................
........................................................................

 iter      E             dE          RMSdq      gap      omega  full diag
   1    -28.2105860 -0.282106E+02  0.128E-01    2.77       0.0  T
   2    -28.2105989 -0.129049E-04  0.697E-02    2.77       1.0  T
   3    -28.2105955  0.344321E-05  0.266E-02    2.78       1.0  T
   4    -28.2106000 -0.452378E-05  0.111E-02    2.77       2.2  T
   5    -28.2106010 -0.950295E-06  0.508E-03    2.77       4.8  T
   6    -28.2106010 -0.100940E-07  0.268E-03    2.78       9.0  T
   7    -28.2106011 -0.942046E-07  0.761E-04    2.77      31.9  T
   8    -28.2106011 -0.669392E-09  0.264E-04    2.77      92.0  T
     SCC iter.                  ...        0 min,  2.024 sec
     gradient                   ...        0 min,  0.348 sec
 * total energy  :   -27.8877809 Eh     change       -0.3059581E-03 Eh
   gradient norm :     0.0036806 Eh/α   predicted    -0.4688302E-03 (  53.23%)
   displ. norm   :     0.1009377 α      lambda       -0.8732450E-04
   maximum displ.:     0.0778142 α      in ANC's #2, #4, #3, ...
 * RMSD in coord.:     0.6887634 α      energy gain  -0.2128505E-01 Eh

generating ANC from exact Hessian ...
Using Lindh-Hessian (1995)
 Shifting diagonal of input Hessian by    5.6891831328404171E-003
 Lowest  eigenvalues of input Hessian
    0.000000    0.000000    0.000000    0.000000    0.000000    0.000000
    0.010000    0.013508    0.016053    0.016446    0.017855    0.025211
    0.028620    0.034932    0.040063    0.056897    0.066454    0.073651
 Highest eigenvalues
    1.400437    1.511676    1.777569    1.986920    2.213914    2.561694


........................................................................
.............................. CYCLE   21 ..............................
........................................................................

 iter      E             dE          RMSdq      gap      omega  full diag
   1    -28.2107719 -0.282108E+02  0.344E-02    2.77       0.0  T
   2    -28.2107729 -0.964519E-06  0.200E-02    2.77       1.2  T
   3    -28.2107729  0.521491E-07  0.768E-03    2.77       3.2  T
   4    -28.2107730 -0.113721E-06  0.232E-03    2.77      10.4  T
   5    -28.2107730 -0.733310E-07  0.921E-04    2.77      26.3  T
   6    -28.2107730 -0.317099E-08  0.235E-04    2.77     103.2  T
     SCC iter.                  ...        0 min,  2.161 sec
     gradient                   ...        0 min,  0.255 sec
 * total energy  :   -27.8878459 Eh     change       -0.6499848E-04 Eh
   gradient norm :     0.0041457 Eh/α   predicted     0.0000000E+00 (-100.00%)
   displ. norm   :     0.0572807 α      lambda       -0.6843735E-04
   maximum displ.:     0.0512348 α      in ANC's #2, #1, #5, ...

........................................................................
.............................. CYCLE   22 ..............................
........................................................................

 iter      E             dE          RMSdq      gap      omega  full diag
   1    -28.2114448 -0.282114E+02  0.204E-02    2.78       0.0  T
   2    -28.2114451 -0.250267E-06  0.120E-02    2.78       2.0  T
   3    -28.2114447  0.383183E-06  0.684E-03    2.78       3.5  T
   4    -28.2114453 -0.539499E-06  0.168E-03    2.78      14.5  T
   5    -28.2114453 -0.678068E-08  0.825E-04    2.78      29.4  T
   6    -28.2114453 -0.551500E-08  0.373E-04    2.78      64.9  T
     SCC iter.                  ...        0 min,  1.554 sec
     gradient                   ...        0 min,  0.163 sec
 * total energy  :   -27.8879056 Eh     change       -0.5974940E-04 Eh
   gradient norm :     0.0019861 Eh/α   predicted    -0.3433091E-04 ( -42.54%)
   displ. norm   :     0.2251015 α      lambda       -0.1312228E-03
   maximum displ.:     0.1948091 α      in ANC's #2, #1, #5, ...

........................................................................
.............................. CYCLE   23 ..............................
........................................................................

 iter      E             dE          RMSdq      gap      omega  full diag
   1    -28.2116019 -0.282116E+02  0.670E-02    2.79       0.0  T
   2    -28.2116033 -0.135585E-05  0.399E-02    2.79       1.0  T
   3    -28.2115986  0.473510E-05  0.218E-02    2.79       1.1  T
   4    -28.2116046 -0.600758E-05  0.421E-03    2.79       5.8  T
   5    -28.2116046 -0.319596E-07  0.241E-03    2.79      10.1  T
   6    -28.2116047 -0.657197E-07  0.789E-04    2.79      30.7  T
   7    -28.2116047 -0.484303E-08  0.283E-04    2.79      85.6  T
     SCC iter.                  ...        0 min,  2.880 sec
     gradient                   ...        0 min,  0.209 sec
 * total energy  :   -27.8880652 Eh     change       -0.1595331E-03 Eh
   gradient norm :     0.0033573 Eh/α   predicted    -0.6708855E-04 ( -57.95%)
   displ. norm   :     0.1692896 α      lambda       -0.1191879E-03
   maximum displ.:     0.1410722 α      in ANC's #2, #1, #5, ...

........................................................................
.............................. CYCLE   24 ..............................
........................................................................

 iter      E             dE          RMSdq      gap      omega  full diag
   1    -28.2107886 -0.282108E+02  0.453E-02    2.80       0.0  T
   2    -28.2107890 -0.314700E-06  0.268E-02    2.80       1.0  T
   3    -28.2107884  0.585507E-06  0.731E-03    2.80       3.3  T
   4    -28.2107890 -0.660091E-06  0.237E-03    2.80      10.2  T
   5    -28.2107891 -0.488564E-07  0.915E-04    2.80      26.5  T
   6    -28.2107891 -0.260660E-08  0.483E-04    2.80      50.2  T
     SCC iter.                  ...        0 min,  3.157 sec
     gradient                   ...        0 min,  0.253 sec
 * total energy  :   -27.8881753 Eh     change       -0.1101242E-03 Eh
   gradient norm :     0.0044768 Eh/α   predicted    -0.6130109E-04 ( -44.33%)
   displ. norm   :     0.2494039 α      lambda       -0.1739899E-03
   maximum displ.:     0.2023105 α      in ANC's #2, #1, #5, ...

........................................................................
.............................. CYCLE   25 ..............................
........................................................................

 iter      E             dE          RMSdq      gap      omega  full diag
   1    -28.2091376 -0.282091E+02  0.681E-02    2.81       0.0  T
   2    -28.2091386 -0.102210E-05  0.396E-02    2.81       1.0  T
   3    -28.2091385  0.683058E-07  0.719E-03    2.81       3.4  T
   4    -28.2091386 -0.949304E-07  0.414E-03    2.81       5.9  T
   5    -28.2091388 -0.146348E-06  0.182E-03    2.81      13.3  T
   6    -28.2091388 -0.255851E-07  0.317E-04    2.81      76.6  T
   7    -28.2091388 -0.901679E-10  0.164E-04    2.81     147.7  T
     SCC iter.                  ...        0 min,  3.240 sec
     gradient                   ...        0 min,  0.181 sec
 * total energy  :   -27.8883053 Eh     change       -0.1300466E-03 Eh
   gradient norm :     0.0071365 Eh/α   predicted    -0.9240501E-04 ( -28.94%)
   displ. norm   :     0.2279159 α      lambda       -0.1484865E-03
   maximum displ.:     0.1869367 α      in ANC's #2, #1, #5, ...

........................................................................
.............................. CYCLE   26 ..............................
........................................................................

 iter      E             dE          RMSdq      gap      omega  full diag
   1    -28.2078360 -0.282078E+02  0.633E-02    2.81       0.0  T
   2    -28.2078369 -0.913387E-06  0.365E-02    2.82       1.0  T
   3    -28.2078367  0.229102E-06  0.851E-03    2.82       2.8  T
   4    -28.2078371 -0.341590E-06  0.406E-03    2.82       6.0  T
   5    -28.2078371 -0.759101E-07  0.167E-03    2.82      14.5  T
   6    -28.2078372 -0.265360E-07  0.403E-04    2.82      60.2  T
   7    -28.2078372 -0.325556E-09  0.287E-04    2.82      84.4  T
     SCC iter.                  ...        0 min,  2.514 sec
     gradient                   ...        0 min,  0.365 sec
 * total energy  :   -27.8883981 Eh     change       -0.9272950E-04 Eh
   gradient norm :     0.0097555 Eh/α   predicted    -0.7809898E-04 ( -15.78%)
   displ. norm   :     0.1320551 α      lambda       -0.2084480E-03
   maximum displ.:     0.0964018 α      in ANC's #2, #5, #4, ...

........................................................................
.............................. CYCLE   27 ..............................
........................................................................

 iter      E             dE          RMSdq      gap      omega  full diag
   1    -28.2097350 -0.282097E+02  0.511E-02    2.82       0.0  T
   2    -28.2097367 -0.170967E-05  0.276E-02    2.82       1.0  T
   3    -28.2097358  0.899996E-06  0.119E-02    2.82       2.0  T
   4    -28.2097370 -0.119359E-05  0.486E-03    2.82       5.0  T
   5    -28.2097371 -0.102059E-06  0.235E-03    2.82      10.3  T
   6    -28.2097372 -0.175095E-07  0.990E-04    2.82      24.5  T
   7    -28.2097372 -0.136976E-07  0.331E-04    2.82      73.3  T
     SCC iter.                  ...        0 min,  2.766 sec
     gradient                   ...        0 min,  0.306 sec
 * total energy  :   -27.8885431 Eh     change       -0.1450079E-03 Eh
   gradient norm :     0.0066683 Eh/α   predicted    -0.1060400E-03 ( -26.87%)
   displ. norm   :     0.2178658 α      lambda       -0.1653024E-03
   maximum displ.:     0.1692470 α      in ANC's #2, #4, #1, ...

........................................................................
.............................. CYCLE   28 ..............................
........................................................................

 iter      E             dE          RMSdq      gap      omega  full diag
   1    -28.2107219 -0.282107E+02  0.679E-02    2.82       0.0  T
   2    -28.2107229 -0.103370E-05  0.371E-02    2.82       1.0  T
   3    -28.2107230 -0.775349E-07  0.826E-03    2.82       2.9  T
   4    -28.2107229  0.100053E-06  0.492E-03    2.82       4.9  T
   5    -28.2107231 -0.190010E-06  0.184E-03    2.82      13.2  T
   6    -28.2107232 -0.367335E-07  0.614E-04    2.82      39.5  T
   7    -28.2107232 -0.101665E-08  0.393E-04    2.82      61.7  T
     SCC iter.                  ...        0 min,  2.537 sec
     gradient                   ...        0 min,  0.242 sec
 * total energy  :   -27.8886631 Eh     change       -0.1199756E-03 Eh
   gradient norm :     0.0066345 Eh/α   predicted    -0.8657202E-04 ( -27.84%)
   displ. norm   :     0.1894954 α      lambda       -0.1360274E-03
   maximum displ.:     0.1449086 α      in ANC's #2, #5, #1, ...

........................................................................
.............................. CYCLE   29 ..............................
........................................................................

 iter      E             dE          RMSdq      gap      omega  full diag
   1    -28.2122437 -0.282122E+02  0.599E-02    2.82       0.0  T
   2    -28.2122447 -0.100684E-05  0.326E-02    2.82       1.0  T
   3    -28.2122439  0.806633E-06  0.109E-02    2.82       2.2  T
   4    -28.2122449 -0.999234E-06  0.502E-03    2.82       4.8  T
   5    -28.2122451 -0.125448E-06  0.118E-03    2.82      20.5  T
   6    -28.2122451 -0.106329E-08  0.751E-04    2.82      32.3  T
   7    -28.2122451 -0.567744E-08  0.315E-04    2.82      76.9  T
     SCC iter.                  ...        0 min,  1.763 sec
     gradient                   ...        0 min,  0.367 sec
 * total energy  :   -27.8887629 Eh     change       -0.9988439E-04 Eh
   gradient norm :     0.0052670 Eh/α   predicted    -0.7045748E-04 ( -29.46%)
   displ. norm   :     0.3838848 α      lambda       -0.1504309E-03
   maximum displ.:     0.3063248 α      in ANC's #2, #5, #1, ...

........................................................................
.............................. CYCLE   30 ..............................
........................................................................

 iter      E             dE          RMSdq      gap      omega  full diag
   1    -28.2081521 -0.282082E+02  0.113E-01    2.83       0.0  T
   2    -28.2081562 -0.412343E-05  0.640E-02    2.83       1.0  T
   3    -28.2081533  0.294029E-05  0.206E-02    2.83       1.2  T
   4    -28.2081569 -0.360650E-05  0.876E-03    2.83       2.8  T
   5    -28.2081574 -0.462438E-06  0.291E-03    2.83       8.3  T
   6    -28.2081574 -0.118873E-07  0.133E-03    2.83      18.2  T
   7    -28.2081574 -0.198069E-07  0.534E-04    2.83      45.4  T
   8    -28.2081574 -0.674497E-09  0.191E-04    2.83     126.7  T
     SCC iter.                  ...        0 min,  2.414 sec
     gradient                   ...        0 min,  0.443 sec
 * total energy  :   -27.8887536 Eh     change        0.9332012E-05 Eh
   gradient norm :     0.0114048 Eh/α   predicted    -0.8630037E-04 (*******%)
   displ. norm   :     0.0658411 α      lambda       -0.3287934E-03
   maximum displ.:     0.0453054 α      in ANC's #2, #4, #7, ...

........................................................................
.............................. CYCLE   31 ..............................
........................................................................

 iter      E             dE          RMSdq      gap      omega  full diag
   1    -28.2130809 -0.282131E+02  0.518E-02    2.83       0.0  T
   2    -28.2130851 -0.419505E-05  0.285E-02    2.83       1.0  T
   3    -28.2130842  0.890560E-06  0.135E-02    2.83       1.8  T
   4    -28.2130854 -0.123334E-05  0.586E-03    2.83       4.1  T
   5    -28.2130857 -0.278434E-06  0.248E-03    2.83       9.8  T
   6    -28.2130857 -0.893934E-08  0.134E-03    2.83      18.1  T
   7    -28.2130857 -0.227103E-07  0.347E-04    2.83      69.9  T
   8    -28.2130857 -0.965947E-10  0.991E-05    2.83     244.7  T
     SCC iter.                  ...        0 min,  6.271 sec
     gradient                   ...        0 min,  0.365 sec
 * total energy  :   -27.8889036 Eh     change       -0.1500261E-03 Eh
   gradient norm :     0.0034073 Eh/α   predicted    -0.1651089E-03 (  10.05%)
   displ. norm   :     0.1510065 α      lambda       -0.5652455E-04
   maximum displ.:     0.1184363 α      in ANC's #2, #5, #1, ...

........................................................................
.............................. CYCLE   32 ..............................
........................................................................

 iter      E             dE          RMSdq      gap      omega  full diag
   1    -28.2123188 -0.282123E+02  0.433E-02    2.83       0.0  T
   2    -28.2123191 -0.340976E-06  0.250E-02    2.83       1.0  T
   3    -28.2123187  0.391447E-06  0.673E-03    2.83       3.6  T
   4    -28.2123191 -0.384780E-06  0.310E-03    2.83       7.8  T
   5    -28.2123192 -0.105622E-06  0.112E-03    2.83      21.6  T
   6    -28.2123192 -0.347727E-08  0.493E-04    2.83      49.2  T
   7    -28.2123192 -0.319511E-08  0.147E-04    2.83     165.1  T
     SCC iter.                  ...        0 min,  3.646 sec
     gradient                   ...        0 min,  0.470 sec
 * total energy  :   -27.8889521 Eh     change       -0.4841478E-04 Eh
   gradient norm :     0.0028056 Eh/α   predicted    -0.2890702E-04 ( -40.29%)
   displ. norm   :     0.3485903 α      lambda       -0.1045689E-03
   maximum displ.:     0.2746289 α      in ANC's #2, #5, #1, ...

........................................................................
.............................. CYCLE   33 ..............................
........................................................................

 iter      E             dE          RMSdq      gap      omega  full diag
   1    -28.2091242 -0.282091E+02  0.965E-02    2.83       0.0  T
   2    -28.2091263 -0.207755E-05  0.564E-02    2.83       1.0  T
   3    -28.2091245  0.179699E-05  0.151E-02    2.83       1.6  T
   4    -28.2091261 -0.162555E-05  0.732E-03    2.84       3.3  T
   5    -28.2091267 -0.641095E-06  0.213E-03    2.84      11.4  T
   6    -28.2091267 -0.106376E-07  0.442E-04    2.84      54.9  T
   7    -28.2091267 -0.160743E-09  0.221E-04    2.84     109.7  T
     SCC iter.                  ...        0 min,  3.996 sec
     gradient                   ...        0 min,  0.401 sec
 * total energy  :   -27.8889589 Eh     change       -0.6814920E-05 Eh
   gradient norm :     0.0073801 Eh/α   predicted    -0.5863564E-04 ( 760.40%)
   displ. norm   :     0.1549223 α      lambda       -0.1269440E-03
   maximum displ.:     0.1207191 α      in ANC's #2, #5, #1, ...

........................................................................
.............................. CYCLE   34 ..............................
........................................................................

 iter      E             dE          RMSdq      gap      omega  full diag
   1    -28.2122609 -0.282123E+02  0.512E-02    2.83       0.0  T
   2    -28.2122624 -0.142063E-05  0.290E-02    2.83       1.0  T
   3    -28.2122619  0.425747E-06  0.940E-03    2.83       2.6  T
   4    -28.2122625 -0.533267E-06  0.403E-03    2.83       6.0  T
   5    -28.2122626 -0.138138E-06  0.142E-03    2.83      17.1  T
   6    -28.2122626 -0.514651E-08  0.326E-04    2.83      74.4  T
   7    -28.2122626  0.141910E-09  0.233E-04    2.83     104.0  T
     SCC iter.                  ...        0 min,  3.699 sec
     gradient                   ...        0 min,  0.253 sec
 * total energy  :   -27.8890104 Eh     change       -0.5155812E-04 Eh
   gradient norm :     0.0018988 Eh/α   predicted    -0.6499424E-04 (  26.06%)
   displ. norm   :     0.0914264 α      lambda       -0.1947294E-04
   maximum displ.:     0.0706329 α      in ANC's #2, #5, #30, ...

........................................................................
.............................. CYCLE   35 ..............................
........................................................................

 iter      E             dE          RMSdq      gap      omega  full diag
   1    -28.2123262 -0.282123E+02  0.250E-02    2.83       0.0  T
   2    -28.2123263 -0.147628E-06  0.149E-02    2.83       1.6  T
   3    -28.2123256  0.782319E-06  0.866E-03    2.83       2.8  T
   4    -28.2123265 -0.950444E-06  0.129E-03    2.83      18.8  T
   5    -28.2123265 -0.108754E-08  0.847E-04    2.83      28.7  T
   6    -28.2123265 -0.837658E-08  0.215E-04    2.83     112.6  T
     SCC iter.                  ...        0 min,  4.056 sec
     gradient                   ...        0 min,  0.464 sec
 * total energy  :   -27.8890317 Eh     change       -0.2126705E-04 Eh
   gradient norm :     0.0019941 Eh/α   predicted    -0.9771065E-05 ( -54.06%)
   displ. norm   :     0.3672607 α      lambda       -0.6031405E-04
   maximum displ.:     0.2949668 α      in ANC's #2, #5, #30, ...

........................................................................
.............................. CYCLE   36 ..............................
........................................................................

 iter      E             dE          RMSdq      gap      omega  full diag
   1    -28.2099980 -0.282100E+02  0.987E-02    2.83       0.0  T
   2    -28.2100017 -0.370306E-05  0.579E-02    2.83       1.0  T
   3    -28.2099935  0.818621E-05  0.286E-02    2.83       1.0  T
   4    -28.2100034 -0.995167E-05  0.585E-03    2.83       4.1  T
   5    -28.2100036 -0.194376E-06  0.257E-03    2.83       9.4  T
   6    -28.2100037 -0.378607E-07  0.151E-03    2.83      16.0  T
   7    -28.2100037 -0.216714E-07  0.279E-04    2.83      86.9  T
   8    -28.2100037 -0.644498E-10  0.114E-04    2.83     212.9  T
     SCC iter.                  ...        0 min,  4.841 sec
     gradient                   ...        0 min,  0.241 sec
 * total energy  :   -27.8890024 Eh     change        0.2926276E-04 Eh
   gradient norm :     0.0079291 Eh/α   predicted    -0.3196671E-04 (-209.24%)
   displ. norm   :     0.1316891 α      lambda       -0.1233632E-03
   maximum displ.:     0.1046147 α      in ANC's #2, #5, #1, ...

........................................................................
.............................. CYCLE   37 ..............................
........................................................................

 iter      E             dE          RMSdq      gap      omega  full diag
   1    -28.2123602 -0.282124E+02  0.400E-02    2.83       0.0  T
   2    -28.2123613 -0.107273E-05  0.229E-02    2.83       1.1  T
   3    -28.2123610  0.261034E-06  0.713E-03    2.83       3.4  T
   4    -28.2123613 -0.268755E-06  0.328E-03    2.83       7.4  T
   5    -28.2123614 -0.127021E-06  0.890E-04    2.83      27.3  T
   6    -28.2123614  0.139772E-08  0.601E-04    2.83      40.4  T
     SCC iter.                  ...        0 min,  2.428 sec
     gradient                   ...        0 min,  0.346 sec
 * total energy  :   -27.8890691 Eh     change       -0.6668184E-04 Eh
   gradient norm :     0.0026989 Eh/α   predicted    -0.6274946E-04 (  -5.90%)
   displ. norm   :     0.0300436 α      lambda       -0.1871055E-04
   maximum displ.:     0.0161092 α      in ANC's #2, #1, #5, ...

........................................................................
.............................. CYCLE   38 ..............................
........................................................................

 iter      E             dE          RMSdq      gap      omega  full diag
   1    -28.2125426 -0.282125E+02  0.127E-02    2.83       0.0  T
   2    -28.2125428 -0.162789E-06  0.672E-03    2.83       3.6  T
   3    -28.2125428  0.509195E-07  0.313E-03    2.83       7.7  T
   4    -28.2125428 -0.527164E-07  0.139E-03    2.83      17.4  T
   5    -28.2125428 -0.209461E-07  0.393E-04    2.83      61.7  T
   6    -28.2125428 -0.278440E-09  0.956E-05    2.83     253.8  T
     SCC iter.                  ...        0 min,  3.664 sec
     gradient                   ...        0 min,  0.215 sec
 * total energy  :   -27.8890809 Eh     change       -0.1182117E-04 Eh
   gradient norm :     0.0015709 Eh/α   predicted    -0.9364362E-05 ( -20.78%)
   displ. norm   :     0.0693280 α      lambda       -0.1226512E-04
   maximum displ.:     0.0494927 α      in ANC's #2, #1, #4, ...

........................................................................
.............................. CYCLE   39 ..............................
........................................................................

 iter      E             dE          RMSdq      gap      omega  full diag
   1    -28.2131267 -0.282131E+02  0.220E-02    2.83       0.0  T
   2    -28.2131269 -0.165250E-06  0.124E-02    2.83       1.9  T
   3    -28.2131264  0.510837E-06  0.915E-03    2.83       2.7  T
   4    -28.2131271 -0.786857E-06  0.185E-03    2.83      13.1  T
   5    -28.2131272 -0.102766E-07  0.103E-03    2.83      23.6  T
   6    -28.2131272 -0.114880E-07  0.284E-04    2.83      85.5  T
   7    -28.2131272 -0.370456E-09  0.122E-04    2.83     199.1  T
     SCC iter.                  ...        0 min,  2.775 sec
     gradient                   ...        0 min,  0.300 sec
 * total energy  :   -27.8890928 Eh     change       -0.1187182E-04 Eh
   gradient norm :     0.0019849 Eh/α   predicted    -0.6144363E-05 ( -48.24%)
   displ. norm   :     0.1552239 α      lambda       -0.1638142E-04
   maximum displ.:     0.1208165 α      in ANC's #2, #5, #26, ...

........................................................................
.............................. CYCLE   40 ..............................
........................................................................

 iter      E             dE          RMSdq      gap      omega  full diag
   1    -28.2127602 -0.282128E+02  0.424E-02    2.83       0.0  T
   2    -28.2127608 -0.590071E-06  0.252E-02    2.83       1.0  T
   3    -28.2127590  0.177814E-05  0.174E-02    2.83       1.4  T
   4    -28.2127619 -0.289459E-05  0.310E-03    2.83       7.8  T
   5    -28.2127620 -0.553669E-07  0.157E-03    2.83      15.4  T
   6    -28.2127620 -0.258763E-07  0.329E-04    2.83      73.7  T
   7    -28.2127620 -0.343523E-09  0.156E-04    2.83     155.8  T
     SCC iter.                  ...        0 min,  3.961 sec
     gradient                   ...        0 min,  0.385 sec
 * total energy  :   -27.8891076 Eh     change       -0.1480168E-04 Eh
   gradient norm :     0.0019924 Eh/α   predicted    -0.8278340E-05 ( -44.07%)
   displ. norm   :     0.1216121 α      lambda       -0.1106406E-04
   maximum displ.:     0.0949836 α      in ANC's #2, #26, #30, ...

........................................................................
.............................. CYCLE   41 ..............................
........................................................................

 iter      E             dE          RMSdq      gap      omega  full diag
   1    -28.2123641 -0.282124E+02  0.365E-02    2.83       0.0  T
   2    -28.2123647 -0.640725E-06  0.211E-02    2.83       1.2  T
   3    -28.2123636  0.112509E-05  0.143E-02    2.83       1.7  T
   4    -28.2123656 -0.196128E-05  0.320E-03    2.83       7.6  T
   5    -28.2123656 -0.197475E-07  0.182E-03    2.83      13.3  T
   6    -28.2123656 -0.374724E-07  0.490E-04    2.83      49.5  T
   7    -28.2123656 -0.140138E-08  0.184E-04    2.83     131.6  T
     SCC iter.                  ...        0 min,  4.364 sec
     gradient                   ...        0 min,  0.002 sec
 * total energy  :   -27.8891126 Eh     change       -0.4974971E-05 Eh
   gradient norm :     0.0020138 Eh/α   predicted    -0.5569261E-05 (  11.95%)
   displ. norm   :     0.0220171 α      lambda       -0.9242203E-05
   maximum displ.:     0.0131264 α      in ANC's #1, #2, #5, ...

........................................................................
.............................. CYCLE   42 ..............................
........................................................................

 iter      E             dE          RMSdq      gap      omega  full diag
   1    -28.2130515 -0.282131E+02  0.108E-02    2.83       0.0  T
   2    -28.2130516 -0.683942E-07  0.586E-03    2.83       4.1  T
   3    -28.2130515  0.442239E-07  0.251E-03    2.83       9.7  T
   4    -28.2130516 -0.584601E-07  0.101E-03    2.83      23.9  T
   5    -28.2130516 -0.582295E-08  0.452E-04    2.83      53.6  T
   6    -28.2130516 -0.379430E-09  0.227E-04    2.83     107.0  T
     SCC iter.                  ...        0 min,  2.480 sec
     gradient                   ...        0 min,  0.242 sec
 * total energy  :   -27.8891181 Eh     change       -0.5486430E-05 Eh
   gradient norm :     0.0010004 Eh/α   predicted    -0.4623873E-05 ( -15.72%)
   displ. norm   :     0.0616743 α      lambda       -0.6824321E-05
   maximum displ.:     0.0415501 α      in ANC's #1, #2, #5, ...
 * RMSD in coord.:     0.6535312 α      energy gain  -0.1337173E-02 Eh

generating ANC from exact Hessian ...
Using Lindh-Hessian (1995)
 Shifting diagonal of input Hessian by    5.6760737985521977E-003
 Lowest  eigenvalues of input Hessian
    0.000000    0.000000    0.000000    0.000000    0.000000    0.000000
    0.010000    0.013475    0.015929    0.016906    0.018039    0.024825
    0.029686    0.035172    0.040464    0.057326    0.066489    0.074283
 Highest eigenvalues
    1.403079    1.507745    1.779447    1.989916    2.212165    2.546165


........................................................................
.............................. CYCLE   43 ..............................
........................................................................

 iter      E             dE          RMSdq      gap      omega  full diag
   1    -28.2131665 -0.282132E+02  0.223E-02    2.83       0.0  T
   2    -28.2131667 -0.188498E-06  0.122E-02    2.83       2.0  T
   3    -28.2131665  0.172189E-06  0.472E-03    2.83       5.1  T
   4    -28.2131667 -0.212367E-06  0.201E-03    2.83      12.1  T
   5    -28.2131667 -0.246626E-07  0.870E-04    2.83      27.9  T
   6    -28.2131667 -0.184210E-08  0.411E-04    2.83      58.9  T
     SCC iter.                  ...        0 min,  2.395 sec
     gradient                   ...        0 min,  0.509 sec
 * total energy  :   -27.8891224 Eh     change       -0.4320979E-05 Eh
   gradient norm :     0.0014153 Eh/α   predicted     0.0000000E+00 (-100.00%)
   displ. norm   :     0.0223076 α      lambda       -0.6135007E-05
   maximum displ.:     0.0207643 α      in ANC's #1, #5, #8, ...

........................................................................
.............................. CYCLE   44 ..............................
........................................................................

 iter      E             dE          RMSdq      gap      omega  full diag
   1    -28.2129535 -0.282130E+02  0.109E-02    2.83       0.0  T
   2    -28.2129536 -0.950768E-07  0.653E-03    2.83       3.7  T
   3    -28.2129535  0.117555E-06  0.443E-03    2.83       5.5  T
   4    -28.2129537 -0.191430E-06  0.826E-04    2.83      29.4  T
   5    -28.2129537 -0.473137E-08  0.432E-04    2.83      56.2  T
     SCC iter.                  ...        0 min,  2.008 sec
     gradient                   ...        0 min,  0.245 sec
 * total energy  :   -27.8891278 Eh     change       -0.5390782E-05 Eh
   gradient norm :     0.0004227 Eh/α   predicted    -0.3065997E-05 ( -43.13%)
   displ. norm   :     0.0214502 α      lambda       -0.2147165E-05
   maximum displ.:     0.0199235 α      in ANC's #1, #5, #6, ...

........................................................................
.............................. CYCLE   45 ..............................
........................................................................

 iter      E             dE          RMSdq      gap      omega  full diag
   1    -28.2129221 -0.282129E+02  0.790E-03    2.83       0.0  T
   2    -28.2129222 -0.282036E-07  0.480E-03    2.83       5.1  T
   3    -28.2129221  0.528916E-07  0.343E-03    2.83       7.1  T
   4    -28.2129222 -0.105665E-06  0.578E-04    2.83      42.0  T
   5    -28.2129222 -0.329427E-08  0.224E-04    2.83     108.4  T
     SCC iter.                  ...        0 min,  2.004 sec
     gradient                   ...        0 min,  0.467 sec
 * total energy  :   -27.8891307 Eh     change       -0.2898768E-05 Eh
   gradient norm :     0.0004541 Eh/α   predicted    -0.1074821E-05 ( -62.92%)
   displ. norm   :     0.0302056 α      lambda       -0.2816579E-05
   maximum displ.:     0.0259649 α      in ANC's #1, #5, #3, ...

   *** GEOMETRY OPTIMIZATION CONVERGED AFTER 45 ITERATIONS ***

------------------------------------------------------------------------
 total energy gain   :        -0.0226348 Eh      -14.2036 kcal/mol
 total RMSD          :         1.1223875 a0        0.5939 Å
 total power (kW/mol):        -1.3206168 (step)   -0.4187 (real)
------------------------------------------------------------------------

 ANCopt (total)                0 d,  0 h,  2 min, 21.944 sec
 optimizer setup                ...        0 min,  0.000 sec (  0.000%)
 model hessian                  ...        0 min,  0.006 sec (  0.004%)
 ANC generation                 ...        0 min,  0.001 sec (  0.001%)
 coordinate transformation      ...        0 min,  0.001 sec (  0.000%)
 single point calculation       ...        2 min, 20.467 sec ( 98.960%)
 optimization log               ...        0 min,  0.004 sec (  0.003%)
 hessian update                 ...        0 min,  1.443 sec (  1.016%)
 rational function              ...        0 min,  0.007 sec (  0.005%)

================
 final structure:
================
17
 xtb: 6.7.1 (edcfbbe)
C            2.25463757907132       -1.41358667751083       -0.17161050958939
C            1.17433776985571       -0.40050973118147       -0.32116825358171
C            1.28390194254964        0.77560239682982       -0.94732638020369
C            0.20259094068277        1.71059217011124       -1.05598988927510
N           -0.96167127300765        1.55583409744001       -0.54013735599065
N           -1.26460891720350        0.50346391430526        0.18156697568210
C           -2.62694600859612        0.41657196562552        0.65160294759689
S           -0.39483580825232       -1.01569357627921        0.35925848641451
O           -0.88680210854287       -1.96642319536505       -0.63214935240268
H            1.95319516243265       -2.34242115135405       -0.65790144140897
H            2.41990807189690       -1.63289024306450        0.88419434466505
H            3.18680792964321       -1.06864481412263       -0.61445145556891
H            2.22859500577848        1.05965161860326       -1.39379450212839
H            0.34268512438252        2.62909996773319       -1.60369064390577
H           -3.20348810060228       -0.28464314770351        0.04274915051422
H           -2.62799948045308        0.07085862692825        1.68586990213759
H           -3.08030781963536        1.40313778900466        0.58916069704457

 Bond Distances (Angstroems)
 ---------------------------
C1-C2=1.4885         C1-H10=1.0909        C1-H11=1.0909        C1-H12=1.0881        C2-C1=1.4885         C2-C3=1.3369         
C2-S8=1.8176         C3-C2=1.3369         C3-C4=1.4336         C3-H13=1.0828        C4-C3=1.4336         C4-N5=1.2828         
C4-H14=1.0785        N5-C4=1.2828         N5-N6=1.3115         N6-N5=1.3115         N6-C7=1.4438         N6-S8=1.7595         
C7-N6=1.4438         C7-H15=1.0931        C7-H16=1.0905        C7-H17=1.0875        S8-C2=1.8176         S8-N6=1.7595         
S8-O9=1.4590         O9-S8=1.4590         H10-C1=1.0909        H11-C1=1.0909        H12-C1=1.0881        H13-C3=1.0828        
H14-C4=1.0785        H15-C7=1.0931        H16-C7=1.0905        H17-C7=1.0875        
 C  H  Rav=1.0878 sigma=0.0045  Rmin=1.0785  Rmax=1.0931     8
 C  C  Rav=1.4197 sigma=0.0627  Rmin=1.3369  Rmax=1.4885     3
 N  C  Rav=1.3633 sigma=0.0805  Rmin=1.2828  Rmax=1.4438     2
 N  N  Rav=1.3115 sigma=0.0000  Rmin=1.3115  Rmax=1.3115     1
 S  C  Rav=1.8176 sigma=0.0000  Rmin=1.8176  Rmax=1.8176     1
 S  N  Rav=1.7595 sigma=0.0000  Rmin=1.7595  Rmax=1.7595     1
 S  O  Rav=1.4590 sigma=0.0000  Rmin=1.4590  Rmax=1.4590     1

 selected bond angles (degree)
 --------------------
H10-C1-C2=109.52               H11-C1-C2=110.12               H11-C1-H10=107.58              H12-C1-C2=111.41               
H12-C1-H10=108.98              H12-C1-H11=109.14              C3-C2-C1=125.90                S8-C2-C1=111.01                
S8-C2-C3=122.94                C4-C3-C2=123.19                H13-C3-C2=119.70               H13-C3-C4=117.11               
N5-C4-C3=125.13                H14-C4-C3=119.73               H14-C4-N5=115.14               N6-N5-C4=121.85                
C7-N6-N5=116.45                S8-N6-N5=129.36                S8-N6-C7=112.43                H15-C7-N6=110.79               
H16-C7-N6=109.19               H16-C7-H15=108.93              H17-C7-N6=108.67               H17-C7-H15=109.27              
H17-C7-H16=109.98              N6-S8-C2= 95.55                O9-S8-C2=104.91                O9-S8-N6=109.10                

 selected dihedral angles (degree)
 ---------------------------------
C3-C2-C1-H10=241.27           C3-C2-C1-H11=123.16           C3-C2-C1-H12=  1.91           S8-C2-C1-H10= 56.96           
S8-C2-C1-H11=298.85           S8-C2-C1-H12=177.60           C4-C3-C2-C1=180.06            C4-C3-C2-S8=  4.85            
H13-C3-C2-C1=359.51           H13-C3-C2-S8=184.30           N5-C4-C3-C2=  2.36            N5-C4-C3-H13=182.90           
H14-C4-C3-C2=182.12           H14-C4-C3-H13=  2.66          N6-N5-C4-C3=  1.55            N6-N5-C4-H14=181.78           
C7-N6-N5-C4=182.88            S8-N6-N5-C4=346.48            H15-C7-N6-N5=101.86           H15-C7-N6-S8=295.52           
H16-C7-N6-N5=221.83           H16-C7-N6-S8= 55.50           H17-C7-N6-N5=341.79           H17-C7-N6-S8=175.46           
N6-S8-C2-C1=172.82            N6-S8-C2-C3=348.66            O9-S8-C2-C1=284.30            O9-S8-C2-C3=100.14            
C2-S8-N6-N5= 16.38            C2-S8-N6-C7=180.50            O9-S8-N6-N5=268.49            O9-S8-N6-C7= 72.61            
           -------------------------------------------------
          |                Final Singlepoint                |
           -------------------------------------------------

          ...................................................
          :                      SETUP                      :
          :.................................................:
          :  # basis functions                  50          :
          :  # atomic orbitals                  49          :
          :  # shells                           27          :
          :  # electrons                        50          :
          :  max. iterations                   250          :
          :  Hamiltonian                  GFN2-xTB          :
          :  restarted?                      false          :
          :  GBSA solvation                  false          :
          :  PC potential                    false          :
          :  electronic temp.          300.0000000     K    :
          :  accuracy                    1.0000000          :
          :  -> integral cutoff          0.2500000E+02      :
          :  -> integral neglect         0.1000000E-07      :
          :  -> SCF convergence          0.1000000E-05 Eh   :
          :  -> wf. convergence          0.1000000E-03 e    :
          :  Broyden damping             0.4000000          :
          :  net charge                          0          :
          :  unpaired electrons                  0          :
          ...................................................

 iter      E             dE          RMSdq      gap      omega  full diag
   1    -28.2129222 -0.282129E+02  0.111E-04    2.83       0.0  T
   2    -28.2129222 -0.189750E-10  0.774E-05    2.83     313.3  T
   3    -28.2129222 -0.361169E-10  0.443E-05    2.83     547.2  T

   *** convergence criteria satisfied after 3 iterations ***

         #    Occupation            Energy/Eh            Energy/eV
      -------------------------------------------------------------
         1        2.0000           -0.7605787             -20.6964
       ...           ...                  ...                  ...
        19        2.0000           -0.4775039             -12.9935
        20        2.0000           -0.4676176             -12.7245
        21        2.0000           -0.4446751             -12.1002
        22        2.0000           -0.4338422             -11.8054
        23        2.0000           -0.3931309             -10.6976
        24        2.0000           -0.3822741             -10.4022
        25        2.0000           -0.3700751             -10.0703 (HOMO)
        26                         -0.2661712              -7.2429 (LUMO)
        27                         -0.2193888              -5.9699
        28                         -0.1776295              -4.8335
        29                         -0.1396959              -3.8013
        30                         -0.0645049              -1.7553
       ...                                ...                  ...
        49                          0.9373168              25.5057
      -------------------------------------------------------------
                  HL-Gap            0.1039039 Eh            2.8274 eV
             Fermi-level           -0.3181232 Eh           -8.6566 eV

 SCC (total)                   0 d,  0 h,  0 min,  2.651 sec
 SCC setup                      ...        0 min,  0.031 sec (  1.154%)
 Dispersion                     ...        0 min,  0.090 sec (  3.380%)
 classical contributions        ...        0 min,  0.081 sec (  3.039%)
 integral evaluation            ...        0 min,  0.182 sec (  6.856%)
 iterations                     ...        0 min,  1.891 sec ( 71.333%)
 molecular gradient             ...        0 min,  0.377 sec ( 14.230%)
 printout                       ...        0 min,  0.000 sec (  0.005%)

         :::::::::::::::::::::::::::::::::::::::::::::::::::::
         ::                     SUMMARY                     ::
         :::::::::::::::::::::::::::::::::::::::::::::::::::::
         :: total energy             -27.889130681822 Eh    ::
         :: gradient norm              0.000454363433 Eh/a0 ::
         :: HOMO-LUMO gap              2.827369510902 eV    ::
         ::.................................................::
         :: SCC energy               -28.212879894912 Eh    ::
         :: -> isotropic ES            0.043203287724 Eh    ::
         :: -> anisotropic ES          0.000495451209 Eh    ::
         :: -> anisotropic XC          0.016758297850 Eh    ::
         :: -> dispersion             -0.015141212089 Eh    ::
         :: repulsion energy           0.323749213090 Eh    ::
         :: add. restraining           0.000000000000 Eh    ::
         :: total charge               0.000000000000 e     ::
         :::::::::::::::::::::::::::::::::::::::::::::::::::::

           -------------------------------------------------
          |                Property Printout                |
           -------------------------------------------------

    * Orbital Energies and Occupations

         #    Occupation            Energy/Eh            Energy/eV
      -------------------------------------------------------------
         1        2.0000           -0.7605787             -20.6964
       ...           ...                  ...                  ...
        13        2.0000           -0.5097326             -13.8705
        14        2.0000           -0.5082064             -13.8290
        15        2.0000           -0.4958002             -13.4914
        16        2.0000           -0.4896453             -13.3239
        17        2.0000           -0.4857423             -13.2177
        18        2.0000           -0.4831429             -13.1470
        19        2.0000           -0.4775039             -12.9935
        20        2.0000           -0.4676176             -12.7245
        21        2.0000           -0.4446751             -12.1002
        22        2.0000           -0.4338422             -11.8054
        23        2.0000           -0.3931309             -10.6976
        24        2.0000           -0.3822741             -10.4022
        25        2.0000           -0.3700751             -10.0703 (HOMO)
        26                         -0.2661712              -7.2429 (LUMO)
        27                         -0.2193888              -5.9699
        28                         -0.1776295              -4.8335
        29                         -0.1396959              -3.8013
        30                         -0.0645049              -1.7553
        31                         -0.0244528              -0.6654
        32                          0.0497791               1.3546
        33                          0.0906885               2.4678
        34                          0.0988376               2.6895
        35                          0.1294324               3.5220
        36                          0.1397570               3.8030
       ...                                ...                  ...
        49                          0.9373168              25.5057
      -------------------------------------------------------------
                  HL-Gap            0.1039039 Eh            2.8274 eV
             Fermi-level           -0.3181232 Eh           -8.6566 eV

     #   Z          covCN         q      C6AA      α(0)
     1   6 C        3.801    -0.112    22.632     6.773
     2   6 C        2.938    -0.030    28.749     8.794
     3   6 C        2.922    -0.045    29.115     8.849
     4   6 C        2.863     0.020    27.557     8.605
     5   7 N        1.923    -0.146    24.936     7.404
     6   7 N        2.834    -0.066    22.506     7.046
     7   6 C        3.776    -0.053    21.556     6.615
     8  16 S        2.907     0.468   123.434    18.699
     9   8 O        0.860    -0.489    23.536     6.504
    10   1 H        0.924     0.068     2.112     2.273
    11   1 H        0.924     0.052     2.301     2.372
    12   1 H        0.925     0.052     2.292     2.367
    13   1 H        0.925     0.041     2.429     2.437
    14   1 H        0.926     0.043     2.404     2.425
    15   1 H        0.924     0.063     2.168     2.303
    16   1 H        0.924     0.054     2.272     2.357
    17   1 H        0.925     0.079     1.988     2.205

 Mol. C6AA /au·bohr⁶  :       3959.074424
 Mol. C8AA /au·bohr⁸  :     104142.715595
 Mol. α(0) /au        :         98.027298


Wiberg/Mayer (AO) data.
largest (>0.10) Wiberg bond orders for each atom

 ---------------------------------------------------------------------------
     #   Z sym  total        # sym  WBO       # sym  WBO       # sym  WBO
 ---------------------------------------------------------------------------
     1   6 C    3.995 --     2 C    1.035    12 H    0.979    11 H    0.966
                            10 H    0.963
     2   6 C    3.975 --     3 C    1.748     1 C    1.035     8 S    0.944
     3   6 C    3.992 --     2 C    1.748     4 C    1.158    13 H    0.955
     4   6 C    3.979 --     5 N    1.642     3 C    1.158    14 H    0.961
                             6 N    0.142
     5   7 N    3.116 --     4 C    1.642     6 N    1.217
     6   7 N    3.494 --     5 N    1.217     7 C    0.996     8 S    0.938
                             4 C    0.142
     7   6 C    3.968 --     6 N    0.996    16 H    0.977    17 H    0.977
                            15 H    0.973
     8  16 S    3.916 --     9 O    1.837     2 C    0.944     6 N    0.938
     9   8 O    2.054 --     8 S    1.837
    10   1 H    0.995 --     1 C    0.963
    11   1 H    0.997 --     1 C    0.966
    12   1 H    0.997 --     1 C    0.979
    13   1 H    0.998 --     3 C    0.955
    14   1 H    0.998 --     4 C    0.961
    15   1 H    0.996 --     7 C    0.973
    16   1 H    0.997 --     7 C    0.977
    17   1 H    0.993 --     7 C    0.977
 ---------------------------------------------------------------------------

Topologies differ in total number of bonds
Writing topology from bond orders to xtbtopo.mol

molecular dipole:
                 x           y           z       tot (Debye)
 q only:        0.409       0.623       1.022
   full:        0.689       0.547       0.718       2.887
molecular quadrupole (traceless):
                xx          xy          yy          xz          yz          zz
 q only:        6.439      -4.626      -6.278      -4.434      -4.388      -0.160
  q+dip:        6.683      -3.475      -7.172      -4.941      -4.649       0.489
   full:        6.994      -3.431      -7.624      -4.761      -3.945       0.630

           -------------------------------------------------
          |                Geometry Summary                 |
           -------------------------------------------------

      molecular mass/u    :      144.1948042
   center of mass at/Å    :       -0.2033053      -0.1544928      -0.1861850
  moments of inertia/u·Å² :        0.2391307E+03   0.3376574E+03   0.5210998E+03
rotational constants/cm⁻¹ :        0.7049546E-01   0.4992526E-01   0.3235010E-01

 * 15 selected distances

     #   Z          #   Z                                           value/Å
     2   6 C        3   6 C                                       1.3369063
     3   6 C        4   6 C                                       1.4336134
     4   6 C        5   7 N                                       1.2827941
     5   7 N        6   7 N                                       1.3115303
     6   7 N        7   6 C                                       1.4437613
     6   7 N        8  16 S                                       1.7595225 (max)
     8  16 S        9   8 O                                       1.4590434
     1   6 C       10   1 H                                       1.0909079
     1   6 C       11   1 H                                       1.0909319
     1   6 C       12   1 H                                       1.0881336
     3   6 C       13   1 H                                       1.0828033
     4   6 C       14   1 H                                       1.0785450 (min)
     7   6 C       15   1 H                                       1.0930721
     7   6 C       16   1 H                                       1.0905169
     7   6 C       17   1 H                                       1.0875423

 * 6 distinct bonds (by element types)

   Z      Z             #   av. dist./Å        max./Å        min./Å
   1 H    6 C           8     1.0878066     1.0930721     1.0785450
   6 C    6 C           2     1.3852599     1.4336134     1.3369063
   6 C    7 N           2     1.3632777     1.4437613     1.2827941
   7 N    7 N           1     1.3115303     1.3115303     1.3115303
   7 N   16 S           1     1.7595225     1.7595225     1.7595225
   8 O   16 S           1     1.4590434     1.4590434     1.4590434


optimized geometry written to: xtbopt.xyz


           -------------------------------------------------
          | TOTAL ENERGY              -27.889130681822 Eh   |
          | GRADIENT NORM               0.000454363433 Eh/α |
          | HOMO-LUMO GAP               2.827369510902 eV   |
           -------------------------------------------------

------------------------------------------------------------------------
 * finished run on 2026/08/20 at 02:31:15.276     
------------------------------------------------------------------------
 total:
 * wall-time:     0 d,  0 h,  2 min, 28.520 sec
 *  cpu-time:     0 d,  0 h,  3 min, 30.746 sec
 * ratio c/w:     1.419 speedup
 SCF:
 * wall-time:     0 d,  0 h,  0 min,  3.608 sec
 *  cpu-time:     0 d,  0 h,  0 min,  6.845 sec
 * ratio c/w:     1.897 speedup
 ANC optimizer:
 * wall-time:     0 d,  0 h,  2 min, 24.616 sec
 *  cpu-time:     0 d,  0 h,  3 min, 23.352 sec
 * ratio c/w:     1.406 speedup

