      -----------------------------------------------------------      
     |                   =====================                   |     
     |                           x T B                           |     
     |                   =====================                   |     
     |                         S. Grimme                         |     
     |          Mulliken Center for Theoretical Chemistry        |     
     |                    University of Bonn                     |     
      -----------------------------------------------------------      

   * xtb version 6.7.1 (edcfbbe) compiled by 'conda@3ef47c1a292c' on 2024-11-25

   xtb is free software: you can redistribute it and/or modify it under
   the terms of the GNU Lesser General Public License as published by
   the Free Software Foundation, either version 3 of the License, or
   (at your option) any later version.
   
   xtb is distributed in the hope that it will be useful,
   but WITHOUT ANY WARRANTY; without even the implied warranty of
   MERCHANTABILITY or FITNESS FOR A PARTICULAR PURPOSE.  See the
   GNU Lesser General Public License for more details.
   
   Cite this work as:
   * C. Bannwarth, E. Caldeweyher, S. Ehlert, A. Hansen, P. Pracht,
     J. Seibert, S. Spicher, S. Grimme, WIREs Comput. Mol. Sci., 2020, 11,
     e01493. DOI: 10.1002/wcms.1493
   
   for GFN2-xTB:
   * C. Bannwarth, S. Ehlert and S. Grimme., J. Chem. Theory Comput., 2019,
     15, 1652-1671. DOI: 10.1021/acs.jctc.8b01176
   for GFN1-xTB:
   * S. Grimme, C. Bannwarth, P. Shushkov, J. Chem. Theory Comput., 2017,
     13, 1989-2009. DOI: 10.1021/acs.jctc.7b00118
   for GFN0-xTB:
   * P. Pracht, E. Caldeweyher, S. Ehlert, S. Grimme, ChemRxiv, 2019, preprint.
     DOI: 10.26434/chemrxiv.8326202.v1
   for GFN-FF:
   * S. Spicher and S. Grimme, Angew. Chem. Int. Ed., 2020, 59, 15665-15673.
     DOI: 10.1002/anie.202004239
   
   for ALPB and GBSA implicit solvation:
   * S. Ehlert, M. Stahn, S. Spicher, S. Grimme, J. Chem. Theory Comput.,
     2021, 17, 4250-4261. DOI: 10.1021/acs.jctc.1c00471
   
   for ddCOSMO and CPCM-X implicit solvation:
   * M. Stahn, S. Ehlert, S. Grimme, J. Phys. Chem. A,
     2023, XX, XXXX-XXXX. DOI: 10.1021/acs.jpca.3c04382
   
   for DFT-D4:
   * E. Caldeweyher, C. Bannwarth and S. Grimme, J. Chem. Phys., 2017,
     147, 034112. DOI: 10.1063/1.4993215
   * E. Caldeweyher, S. Ehlert, A. Hansen, H. Neugebauer, S. Spicher,
     C. Bannwarth and S. Grimme, J. Chem. Phys., 2019, 150, 154122.
     DOI: 10.1063/1.5090222
   * E. Caldeweyher, J.-M. Mewes, S. Ehlert and S. Grimme, Phys. Chem. Chem. Phys.
     2020, 22, 8499-8512. DOI: 10.1039/D0CP00502A
   
   for sTDA-xTB:
   * S. Grimme and C. Bannwarth, J. Chem. Phys., 2016, 145, 054103.
     DOI: 10.1063/1.4959605
   
   in the mass-spec context:
   * V. Asgeirsson, C. Bauer and S. Grimme, Chem. Sci., 2017, 8, 4879.
     DOI: 10.1039/c7sc00601b
   * J. Koopman and S. Grimme, ACS Omega 2019, 4, 12, 15120-15133.
     DOI: 10.1021/acsomega.9b02011
   
   for metadynamics refer to:
   * S. Grimme, J. Chem. Theory Comput., 2019, 155, 2847-2862
     DOI: 10.1021/acs.jctc.9b00143
   
   for SPH calculations refer to:
   * S. Spicher and S. Grimme, J. Chem. Theory Comput., 2021, 17, 1701-1714
     DOI: 10.1021/acs.jctc.0c01306
   
   for ONIOM refer to:
   * C. Plett, A. Katbashev, S. Ehlert, S. Grimme, M. Bursch,
     Phys. Chem. Chem. Phys., 2023, 25, 17860-17868. DOI: 10.1039/D3CP02178E
   
   for DIPRO refer to:
   * J. Kohn, N. Gildemeister, S. Grimme, D. Fazzi, A. Hansen,
     J. Chem. Phys., 2023, just accepted.
   
   for PTB refer to:
   * S. Grimme, M. Mueller, A. Hansen, J. Chem. Phys., 2023, 158, 124111.
     DOI: 10.1063/5.0137838
   
   with help from (in alphabetical order)
   P. Atkinson, C. Bannwarth, F. Bohle, G. Brandenburg, E. Caldeweyher
   M. Checinski, S. Dohm, S. Ehlert, S. Ehrlich, I. Gerasimov, C. Hölzer
   A. Katbashev, J. Kohn, J. Koopman, C. Lavigne, S. Lehtola, F. März, M. Müller,
   F. Musil, H. Neugebauer, J. Pisarek, C. Plett, P. Pracht, F. Pultar,
   J. Seibert, P. Shushkov, S. Spicher, M. Stahn, M. Steiner, T. Strunk,
   J. Stückrath, T. Rose, and J. Unsleber
   
 * started run on 2026/08/20 at 02:39:20.814     
   ID    Z sym.   atoms
    1    6 C      1-4, 7
    2    7 N      5, 6
    3   16 S      8
    4    8 O      9
    5    1 H      10-17
constraining bond 2 6 to    1.9000000 Å, actual value:    2.6492213 Å
constraining bond 2 8 to    2.1000000 Å, actual value:    1.8176188 Å
constraining bond 6 8 to    2.1000000 Å, actual value:    1.7595225 Å
constraining bond 8 9 to    1.4800000 Å, actual value:    1.4590434 Å

           -------------------------------------------------
          |                Calculation Setup                |
           -------------------------------------------------

          program call               : /h/399/yunhengzou/micromamba/envs/el-agente/bin/xtb pathway_A_substrate.xyz --opt --gfn 2 -P 4 --chrg 0 --uhf 0 --input detailed_input.inp
          coordinate file            : pathway_A_substrate.xyz
          omp threads                :                     4


           -------------------------------------------------
          |                 G F N 2 - x T B                 |
           -------------------------------------------------

        Reference                      10.1021/acs.jctc.8b01176
      * Hamiltonian:
        H0-scaling (s, p, d)           1.850000    2.230000    2.230000
        zeta-weighting                 0.500000
      * Dispersion:
        s8                             2.700000
        a1                             0.520000
        a2                             5.000000
        s9                             5.000000
      * Repulsion:
        kExp                           1.500000    1.000000
        rExp                           1.000000
      * Coulomb:
        alpha                          2.000000
        third order                    shell-resolved
        anisotropic                    true
        a3                             3.000000
        a5                             4.000000
        cn-shift                       1.200000
        cn-exp                         4.000000
        max-rad                        5.000000


          ...................................................
          :                      SETUP                      :
          :.................................................:
          :  # basis functions                  50          :
          :  # atomic orbitals                  49          :
          :  # shells                           27          :
          :  # electrons                        50          :
          :  max. iterations                   250          :
          :  Hamiltonian                  GFN2-xTB          :
          :  restarted?                      false          :
          :  GBSA solvation                  false          :
          :  PC potential                    false          :
          :  electronic temp.          300.0000000     K    :
          :  accuracy                    1.0000000          :
          :  -> integral cutoff          0.2500000E+02      :
          :  -> integral neglect         0.1000000E-07      :
          :  -> SCF convergence          0.1000000E-05 Eh   :
          :  -> wf. convergence          0.1000000E-03 e    :
          :  Broyden damping             0.4000000          :
          :  net charge                          0          :
          :  unpaired electrons                  0          :
          ...................................................

 iter      E             dE          RMSdq      gap      omega  full diag
   1    -28.1491347 -0.281491E+02  0.458E+00    2.89       0.0  T
   2    -28.1918220 -0.426873E-01  0.328E+00    2.99       1.0  T
   3    -28.1996914 -0.786943E-02  0.153E+00    2.81       1.0  T
   4    -28.2103764 -0.106850E-01  0.639E-01    2.86       1.0  T
   5    -28.2127241 -0.234771E-02  0.265E-01    2.82       1.0  T
   6    -28.2125092  0.214906E-03  0.165E-01    2.83       1.0  T
   7    -28.2129209 -0.411720E-03  0.327E-02    2.83       1.0  T
   8    -28.2129218 -0.811097E-06  0.155E-02    2.83       1.6  T
   9    -28.2129222 -0.427712E-06  0.380E-03    2.83       6.4  T
  10    -28.2129222 -0.231805E-07  0.186E-03    2.83      13.1  T
  11    -28.2129222 -0.469236E-08  0.646E-04    2.83      37.6  T
  12    -28.2129222 -0.111615E-08  0.182E-04    2.83     133.4  T

   *** convergence criteria satisfied after 12 iterations ***

         #    Occupation            Energy/Eh            Energy/eV
      -------------------------------------------------------------
         1        2.0000           -0.7605794             -20.6964
       ...           ...                  ...                  ...
        19        2.0000           -0.4775036             -12.9935
        20        2.0000           -0.4676183             -12.7245
        21        2.0000           -0.4446749             -12.1002
        22        2.0000           -0.4338427             -11.8055
        23        2.0000           -0.3931307             -10.6976
        24        2.0000           -0.3822738             -10.4022
        25        2.0000           -0.3700749             -10.0703 (HOMO)
        26                         -0.2661715              -7.2429 (LUMO)
        27                         -0.2193879              -5.9698
        28                         -0.1776304              -4.8336
        29                         -0.1396959              -3.8013
        30                         -0.0645048              -1.7553
       ...                                ...                  ...
        49                          0.9373179              25.5057
      -------------------------------------------------------------
                  HL-Gap            0.1039035 Eh            2.8274 eV
             Fermi-level           -0.3181232 Eh           -8.6566 eV

 SCC (total)                   0 d,  0 h,  0 min,  2.317 sec
 SCC setup                      ...        0 min,  0.011 sec (  0.470%)
 Dispersion                     ...        0 min,  0.026 sec (  1.110%)
 classical contributions        ...        0 min,  0.026 sec (  1.140%)
 integral evaluation            ...        0 min,  0.002 sec (  0.068%)
 iterations                     ...        0 min,  2.242 sec ( 96.765%)
 molecular gradient             ...        0 min,  0.002 sec (  0.077%)
 printout                       ...        0 min,  0.009 sec (  0.369%)

         :::::::::::::::::::::::::::::::::::::::::::::::::::::
         ::                     SUMMARY                     ::
         :::::::::::::::::::::::::::::::::::::::::::::::::::::
         :: total energy             -25.995734564383 Eh    ::
         :: gradient norm              2.363816845148 Eh/a0 ::
         :: HOMO-LUMO gap              2.827357468416 eV    ::
         ::.................................................::
         :: SCC energy               -28.212879894819 Eh    ::
         :: -> isotropic ES            0.043203204649 Eh    ::
         :: -> anisotropic ES          0.000495367341 Eh    ::
         :: -> anisotropic XC          0.016758368234 Eh    ::
         :: -> dispersion             -0.015141208606 Eh    ::
         :: repulsion energy           0.323749213090 Eh    ::
         :: add. restraining           1.893396117346 Eh    ::
         :: total charge              -0.000000000000 e     ::
         :::::::::::::::::::::::::::::::::::::::::::::::::::::

      ----------------------------------------------------------- 
     |                   =====================                   |
     |                        A N C O P T                        |
     |                   =====================                   |
     |               Approximate Normal Coordinate               |
     |                Rational Function Optimizer                |
      ----------------------------------------------------------- 
      ----------------------------------------------------------- 
     |                   =====================                   |
     |                        A N C O P T                        |
     |                   =====================                   |
     |               Approximate Normal Coordinate               |
     |                Rational Function Optimizer                |
      ----------------------------------------------------------- 

          ...................................................
          :                      SETUP                      :
          :.................................................:
          :   optimization level            normal          :
          :   max. optcycles                   200          :
          :   ANC micro-cycles                  20          :
          :   degrees of freedom                45          :
          :.................................................:
          :   RF solver                   davidson          :
          :   write xtbopt.log                true          :
          :   linear?                        false          :
          :   energy convergence         0.5000000E-05 Eh   :
          :   grad. convergence          0.1000000E-02 Eh/α :
          :   maxmium RF displ.          1.0000000          :
          :   Hlow (freq-cutoff)         0.1000000E-01      :
          :   Hmax (freq-cutoff)         5.0000000          :
          :   S6 in model hess.         20.0000000          :
          ...................................................

generating ANC from exact Hessian ...
Using Lindh-Hessian (1995)
 Shifting diagonal of input Hessian by   0.35444049904379415     
 Lowest  eigenvalues of input Hessian
    0.010000    0.000000    0.000000    0.000000    0.000000    0.000000
    0.000000    0.361171    0.363044    0.366766    0.367500    0.369831
    0.385879    0.398693    0.403707    0.410845    0.414316    0.419823
 Highest eigenvalues
    2.000191    2.462044    2.602510    4.755374    4.964975    6.244035


........................................................................
.............................. CYCLE    1 ..............................
........................................................................

 iter      E             dE          RMSdq      gap      omega  full diag
   1    -28.2129222 -0.282129E+02  0.760E-05    2.83       0.0  T
   2    -28.2129222 -0.543210E-11  0.512E-05    2.83     473.2  T
   3    -28.2129222 -0.634515E-11  0.378E-05    2.83     641.8  T
     SCC iter.                  ...        0 min,  0.236 sec
     gradient                   ...        0 min,  0.002 sec
 * total energy  :   -25.9957346 Eh     change       -0.9558576E-10 Eh
   gradient norm :     2.3637946 Eh/α   predicted     0.0000000E+00 (-100.00%)
   displ. norm   :     0.6757713 α      lambda       -0.1514334E+01
   maximum displ.:     0.4200719 α      in ANC's #31, #42, #39, ...

........................................................................
.............................. CYCLE    2 ..............................
........................................................................

 iter      E             dE          RMSdq      gap      omega  full diag
   1    -28.1490485 -0.281490E+02  0.149E+00    2.64       0.0  T
   2    -28.1525022 -0.345368E-02  0.956E-01    2.57       1.0  T
   3    -28.1517401  0.762093E-03  0.530E-01    2.59       1.0  T
   4    -28.1532813 -0.154113E-02  0.222E-01    2.59       1.0  T
   5    -28.1537416 -0.460337E-03  0.747E-02    2.59       1.0  T
   6    -28.1537439 -0.227547E-05  0.233E-02    2.59       1.0  T
   7    -28.1537464 -0.253401E-05  0.109E-02    2.59       2.2  T
   8    -28.1537466 -0.187036E-06  0.505E-03    2.59       4.8  T
   9    -28.1537468 -0.174522E-06  0.155E-03    2.59      15.6  T
  10    -28.1537468 -0.106527E-08  0.818E-04    2.59      29.6  T
  11    -28.1537468 -0.212359E-08  0.243E-04    2.59      99.8  T
     SCC iter.                  ...        0 min,  1.253 sec
     gradient                   ...        0 min,  0.126 sec
 * total energy  :   -27.1913111 Eh     change       -0.1195577E+01 Eh
   gradient norm :     1.2826641 Eh/α   predicted    -0.1102940E+01 (  -7.75%)
   displ. norm   :     0.6107905 α      lambda       -0.7451803E+00
   maximum displ.:     0.3909869 α      in ANC's #31, #42, #39, ...

........................................................................
.............................. CYCLE    3 ..............................
........................................................................

 iter      E             dE          RMSdq      gap      omega  full diag
   1    -28.0326994 -0.280327E+02  0.157E+00    1.44       0.0  T
   2    -28.0342020 -0.150268E-02  0.651E-01    1.46       1.0  T
   3    -28.0353251 -0.112306E-02  0.702E-01    1.46       1.0  T
   4    -28.0381347 -0.280961E-02  0.124E-01    1.45       1.0  T
   5    -28.0381329  0.185099E-05  0.895E-02    1.45       1.0  T
   6    -28.0381732 -0.403429E-04  0.477E-02    1.45       1.0  T
   7    -28.0381946 -0.213591E-04  0.107E-02    1.45       2.3  T
   8    -28.0381955 -0.887752E-06  0.565E-03    1.45       4.3  T
   9    -28.0381957 -0.216881E-06  0.274E-03    1.45       8.9  T
  10    -28.0381957 -0.199555E-07  0.872E-04    1.45      27.8  T
  11    -28.0381957 -0.255785E-08  0.405E-04    1.45      59.9  T
     SCC iter.                  ...        0 min,  1.320 sec
     gradient                   ...        0 min,  0.058 sec
 * total energy  :   -27.6444243 Eh     change       -0.4531132E+00 Eh
   gradient norm :     0.3588475 Eh/α   predicted    -0.5115905E+00 (  12.91%)
   displ. norm   :     0.4887222 α      lambda       -0.9380954E-01
   maximum displ.:     0.3882188 α      in ANC's #1, #31, #25, ...

........................................................................
.............................. CYCLE    4 ..............................
........................................................................

 iter      E             dE          RMSdq      gap      omega  full diag
   1    -28.0116901 -0.280117E+02  0.725E-01    1.34       0.0  T
   2    -28.0118649 -0.174854E-03  0.749E-01    1.38       1.0  T
   3    -28.0150652 -0.320028E-02  0.264E-01    1.36       1.0  T
   4    -28.0150095  0.557426E-04  0.134E-01    1.36       1.0  T
   5    -28.0150236 -0.141275E-04  0.770E-02    1.36       1.0  T
   6    -28.0150906 -0.670351E-04  0.236E-02    1.36       1.0  T
   7    -28.0150948 -0.417091E-05  0.113E-02    1.36       2.1  T
   8    -28.0150962 -0.134996E-05  0.407E-03    1.36       6.0  T
   9    -28.0150962 -0.287620E-07  0.194E-03    1.36      12.5  T
  10    -28.0150962 -0.168098E-07  0.588E-04    1.36      41.3  T
  11    -28.0150962 -0.309811E-09  0.213E-04    1.36     113.9  T
     SCC iter.                  ...        0 min,  1.138 sec
     gradient                   ...        0 min,  0.262 sec
 * total energy  :   -27.7000976 Eh     change       -0.5567323E-01 Eh
   gradient norm :     0.1637772 Eh/α   predicted    -0.5810797E-01 (   4.37%)
   displ. norm   :     0.2350871 α      lambda       -0.2368817E-01
   maximum displ.:     0.0969886 α      in ANC's #25, #26, #9, ...

........................................................................
.............................. CYCLE    5 ..............................
........................................................................

 iter      E             dE          RMSdq      gap      omega  full diag
   1    -28.0055889 -0.280056E+02  0.534E-01    1.38       0.0  T
   2    -28.0052495  0.339397E-03  0.474E-01    1.37       1.0  T
   3    -28.0069551 -0.170551E-02  0.171E-01    1.38       1.0  T
   4    -28.0069150  0.400026E-04  0.104E-01    1.38       1.0  T
   5    -28.0070555 -0.140456E-03  0.406E-02    1.38       1.0  T
   6    -28.0070709 -0.154188E-04  0.142E-02    1.38       1.7  T
   7    -28.0070717 -0.738118E-06  0.630E-03    1.38       3.8  T
   8    -28.0070719 -0.264547E-06  0.296E-03    1.38       8.2  T
   9    -28.0070720 -0.359291E-07  0.991E-04    1.38      24.5  T
  10    -28.0070720 -0.233561E-08  0.423E-04    1.38      57.4  T
     SCC iter.                  ...        0 min,  1.569 sec
     gradient                   ...        0 min,  0.133 sec
 * total energy  :   -27.7153365 Eh     change       -0.1523893E-01 Eh
   gradient norm :     0.1363115 Eh/α   predicted    -0.1249867E-01 ( -17.98%)
   displ. norm   :     0.6009617 α      lambda       -0.3070607E-01
   maximum displ.:     0.4878884 α      in ANC's #1, #9, #26, ...

........................................................................
.............................. CYCLE    6 ..............................
........................................................................

 iter      E             dE          RMSdq      gap      omega  full diag
   1    -28.0085895 -0.280086E+02  0.695E-01    1.43       0.0  T
   2    -28.0089219 -0.332396E-03  0.422E-01    1.45       1.0  T
   3    -28.0084721  0.449845E-03  0.325E-01    1.43       1.0  T
   4    -28.0094133 -0.941175E-03  0.127E-01    1.45       1.0  T
   5    -28.0095320 -0.118785E-03  0.486E-02    1.44       1.0  T
   6    -28.0095460 -0.139488E-04  0.279E-02    1.44       1.0  T
   7    -28.0095548 -0.876738E-05  0.121E-02    1.44       2.0  T
   8    -28.0095558 -0.104217E-05  0.435E-03    1.44       5.6  T
   9    -28.0095559 -0.787371E-07  0.233E-03    1.44      10.4  T
  10    -28.0095559 -0.110212E-07  0.587E-04    1.44      41.3  T
  11    -28.0095559 -0.219402E-08  0.251E-04    1.44      96.6  T
     SCC iter.                  ...        0 min,  1.062 sec
     gradient                   ...        0 min,  0.152 sec
 * total energy  :   -27.7317849 Eh     change       -0.1644846E-01 Eh
   gradient norm :     0.1315830 Eh/α   predicted    -0.2089782E-01 (  27.05%)
   displ. norm   :     0.4602879 α      lambda       -0.2714863E-01
   maximum displ.:     0.2180727 α      in ANC's #1, #9, #8, ...

........................................................................
.............................. CYCLE    7 ..............................
........................................................................

 iter      E             dE          RMSdq      gap      omega  full diag
   1    -28.0304447 -0.280304E+02  0.570E-01    1.68       0.0  T
   2    -28.0305941 -0.149389E-03  0.390E-01    1.66       1.0  T
   3    -28.0303253  0.268845E-03  0.241E-01    1.69       1.0  T
   4    -28.0309606 -0.635278E-03  0.820E-02    1.67       1.0  T
   5    -28.0310015 -0.409444E-04  0.506E-02    1.68       1.0  T
   6    -28.0310301 -0.285816E-04  0.160E-02    1.68       1.5  T
   7    -28.0310305 -0.393159E-06  0.939E-03    1.68       2.6  T
   8    -28.0310312 -0.741822E-06  0.413E-03    1.68       5.9  T
   9    -28.0310313 -0.513300E-07  0.148E-03    1.68      16.4  T
  10    -28.0310313 -0.690743E-08  0.461E-04    1.68      52.6  T
  11    -28.0310313 -0.645514E-09  0.219E-04    1.68     110.9  T
     SCC iter.                  ...        0 min,  1.428 sec
     gradient                   ...        0 min,  0.066 sec
 * total energy  :   -27.7417326 Eh     change       -0.9947695E-02 Eh
   gradient norm :     0.1577071 Eh/α   predicted    -0.1645026E-01 (  65.37%)
   displ. norm   :     0.1594192 α      lambda       -0.1091578E-01
   maximum displ.:     0.0976123 α      in ANC's #1, #11, #25, ...

........................................................................
.............................. CYCLE    8 ..............................
........................................................................

 iter      E             dE          RMSdq      gap      omega  full diag
   1    -28.0422979 -0.280423E+02  0.241E-01    1.65       0.0  T
   2    -28.0423119 -0.140746E-04  0.168E-01    1.64       1.0  T
   3    -28.0425172 -0.205267E-03  0.820E-02    1.65       1.0  T
   4    -28.0425410 -0.237809E-04  0.264E-02    1.65       1.0  T
   5    -28.0425398  0.121873E-05  0.196E-02    1.65       1.2  T
   6    -28.0425455 -0.573135E-05  0.507E-03    1.65       4.8  T
   7    -28.0425456 -0.131958E-06  0.199E-03    1.65      12.2  T
   8    -28.0425457 -0.180180E-07  0.983E-04    1.65      24.7  T
   9    -28.0425457 -0.191167E-08  0.414E-04    1.65      58.7  T
     SCC iter.                  ...        0 min,  1.040 sec
     gradient                   ...        0 min,  0.172 sec
 * total energy  :   -27.7508883 Eh     change       -0.9155629E-02 Eh
   gradient norm :     0.0787540 Eh/α   predicted    -0.5596603E-02 ( -38.87%)
   displ. norm   :     0.4107856 α      lambda       -0.1772733E-01
   maximum displ.:     0.1839632 α      in ANC's #1, #11, #9, ...

........................................................................
.............................. CYCLE    9 ..............................
........................................................................

 iter      E             dE          RMSdq      gap      omega  full diag
   1    -28.0680395 -0.280680E+02  0.502E-01    1.64       0.0  T
   2    -28.0680032  0.363304E-04  0.399E-01    1.60       1.0  T
   3    -28.0691482 -0.114503E-02  0.176E-01    1.63       1.0  T
   4    -28.0692030 -0.547721E-04  0.724E-02    1.62       1.0  T
   5    -28.0692383 -0.353124E-04  0.355E-02    1.62       1.0  T
   6    -28.0692529 -0.145931E-04  0.113E-02    1.62       2.1  T
   7    -28.0692538 -0.931390E-06  0.489E-03    1.62       5.0  T
   8    -28.0692541 -0.239173E-06  0.187E-03    1.62      13.0  T
   9    -28.0692541 -0.102609E-07  0.827E-04    1.62      29.3  T
  10    -28.0692541 -0.327602E-08  0.239E-04    1.62     101.3  T
     SCC iter.                  ...        0 min,  1.448 sec
     gradient                   ...        0 min,  0.221 sec
 * total energy  :   -27.7615281 Eh     change       -0.1063986E-01 Eh
   gradient norm :     0.0773117 Eh/α   predicted    -0.1035936E-01 (  -2.64%)
   displ. norm   :     0.1745466 α      lambda       -0.3246767E-02
   maximum displ.:     0.0851637 α      in ANC's #9, #11, #10, ...

........................................................................
.............................. CYCLE   10 ..............................
........................................................................

 iter      E             dE          RMSdq      gap      omega  full diag
   1    -28.0770021 -0.280770E+02  0.145E-01    1.64       0.0  T
   2    -28.0769970  0.508523E-05  0.128E-01    1.63       1.0  T
   3    -28.0770780 -0.810303E-04  0.631E-02    1.64       1.0  T
   4    -28.0770798 -0.173606E-05  0.229E-02    1.64       1.1  T
   5    -28.0770865 -0.667645E-05  0.650E-03    1.64       3.7  T
   6    -28.0770869 -0.436495E-06  0.363E-03    1.64       6.7  T
   7    -28.0770870 -0.744579E-07  0.123E-03    1.64      19.7  T
   8    -28.0770870 -0.188423E-07  0.486E-04    1.64      49.9  T
   9    -28.0770870 -0.731482E-09  0.183E-04    1.64     132.2  T
     SCC iter.                  ...        0 min,  0.964 sec
     gradient                   ...        0 min,  0.064 sec
 * total energy  :   -27.7638948 Eh     change       -0.2366638E-02 Eh
   gradient norm :     0.0561335 Eh/α   predicted    -0.1672839E-02 ( -29.32%)
   displ. norm   :     0.1686563 α      lambda       -0.2711259E-02
   maximum displ.:     0.0677075 α      in ANC's #9, #11, #10, ...

........................................................................
.............................. CYCLE   11 ..............................
........................................................................

 iter      E             dE          RMSdq      gap      omega  full diag
   1    -28.0809721 -0.280810E+02  0.161E-01    1.65       0.0  T
   2    -28.0809849 -0.127448E-04  0.102E-01    1.65       1.0  T
   3    -28.0809705  0.143675E-04  0.728E-02    1.65       1.0  T
   4    -28.0810141 -0.436359E-04  0.222E-02    1.65       1.1  T
   5    -28.0810202 -0.605639E-05  0.102E-02    1.65       2.4  T
   6    -28.0810210 -0.777854E-06  0.322E-03    1.65       7.5  T
   7    -28.0810210 -0.296133E-07  0.683E-04    1.65      35.5  T
   8    -28.0810210 -0.158977E-08  0.394E-04    1.65      61.6  T
     SCC iter.                  ...        0 min,  0.771 sec
     gradient                   ...        0 min,  0.105 sec
 * total energy  :   -27.7657090 Eh     change       -0.1814202E-02 Eh
   gradient norm :     0.0243587 Eh/α   predicted    -0.1394192E-02 ( -23.15%)
   displ. norm   :     0.1164641 α      lambda       -0.1191065E-02
   maximum displ.:     0.0666461 α      in ANC's #1, #4, #2, ...

........................................................................
.............................. CYCLE   12 ..............................
........................................................................

 iter      E             dE          RMSdq      gap      omega  full diag
   1    -28.0807440 -0.280807E+02  0.121E-01    1.66       0.0  T
   2    -28.0807541 -0.101255E-04  0.783E-02    1.67       1.0  T
   3    -28.0807808 -0.266913E-04  0.496E-02    1.66       1.0  T
   4    -28.0807910 -0.101784E-04  0.129E-02    1.66       1.9  T
   5    -28.0807919 -0.894571E-06  0.524E-03    1.66       4.6  T
   6    -28.0807919 -0.949958E-08  0.364E-03    1.66       6.7  T
   7    -28.0807921 -0.189464E-06  0.119E-03    1.66      20.3  T
   8    -28.0807921 -0.977133E-08  0.491E-04    1.66      49.4  T
   9    -28.0807921 -0.364679E-09  0.155E-04    1.66     156.2  T
     SCC iter.                  ...        0 min,  1.288 sec
     gradient                   ...        0 min,  0.026 sec
 * total energy  :   -27.7665738 Eh     change       -0.8648603E-03 Eh
   gradient norm :     0.0161236 Eh/α   predicted    -0.6036107E-03 ( -30.21%)
   displ. norm   :     0.1316559 α      lambda       -0.1100595E-02
   maximum displ.:     0.0722763 α      in ANC's #1, #4, #2, ...

........................................................................
.............................. CYCLE   13 ..............................
........................................................................

 iter      E             dE          RMSdq      gap      omega  full diag
   1    -28.0792982 -0.280793E+02  0.115E-01    1.67       0.0  T
   2    -28.0793063 -0.803810E-05  0.730E-02    1.68       1.0  T
   3    -28.0793259 -0.196535E-04  0.483E-02    1.67       1.0  T
   4    -28.0793362 -0.103007E-04  0.124E-02    1.67       2.0  T
   5    -28.0793370 -0.711542E-06  0.464E-03    1.67       5.2  T
   6    -28.0793370 -0.966829E-07  0.224E-03    1.67      10.8  T
   7    -28.0793371 -0.345300E-07  0.720E-04    1.67      33.7  T
   8    -28.0793371  0.426956E-08  0.605E-04    1.67      40.1  T
     SCC iter.                  ...        0 min,  1.296 sec
     gradient                   ...        0 min,  0.204 sec
 * total energy  :   -27.7674128 Eh     change       -0.8389128E-03 Eh
   gradient norm :     0.0192182 Eh/α   predicted    -0.5598400E-03 ( -33.27%)
   displ. norm   :     0.2234390 α      lambda       -0.1517494E-02
   maximum displ.:     0.1199818 α      in ANC's #1, #2, #4, ...

........................................................................
.............................. CYCLE   14 ..............................
........................................................................

 iter      E             dE          RMSdq      gap      omega  full diag
   1    -28.0766030 -0.280766E+02  0.137E-01    1.68       0.0  T
   2    -28.0766127 -0.965745E-05  0.811E-02    1.68       1.0  T
   3    -28.0765995  0.132040E-04  0.623E-02    1.68       1.0  T
   4    -28.0766315 -0.320220E-04  0.170E-02    1.68       1.4  T
   5    -28.0766342 -0.273805E-05  0.937E-03    1.68       2.6  T
   6    -28.0766350 -0.804713E-06  0.356E-03    1.68       6.8  T
   7    -28.0766351 -0.494351E-07  0.169E-03    1.68      14.3  T
   8    -28.0766351 -0.146829E-07  0.689E-04    1.68      35.2  T
   9    -28.0766351 -0.195354E-08  0.233E-04    1.68     104.3  T
     SCC iter.                  ...        0 min,  1.381 sec
     gradient                   ...        0 min,  0.102 sec
 * total energy  :   -27.7686023 Eh     change       -0.1189594E-02 Eh
   gradient norm :     0.0256607 Eh/α   predicted    -0.7966232E-03 ( -33.03%)
   displ. norm   :     0.3606991 α      lambda       -0.2448365E-02
   maximum displ.:     0.1976301 α      in ANC's #2, #4, #1, ...

........................................................................
.............................. CYCLE   15 ..............................
........................................................................

 iter      E             dE          RMSdq      gap      omega  full diag
   1    -28.0728796 -0.280729E+02  0.179E-01    1.69       0.0  T
   2    -28.0728834 -0.374761E-05  0.106E-01    1.69       1.0  T
   3    -28.0727931  0.902584E-04  0.869E-02    1.69       1.0  T
   4    -28.0728991 -0.106006E-03  0.156E-02    1.69       1.6  T
   5    -28.0729013 -0.212052E-05  0.865E-03    1.69       2.8  T
   6    -28.0729018 -0.501160E-06  0.371E-03    1.69       6.5  T
   7    -28.0729018 -0.237696E-07  0.143E-03    1.69      16.9  T
   8    -28.0729018 -0.616099E-08  0.675E-04    1.69      35.9  T
   9    -28.0729018 -0.383385E-08  0.264E-04    1.69      91.7  T
     SCC iter.                  ...        0 min,  1.385 sec
     gradient                   ...        0 min,  0.063 sec
 * total energy  :   -27.7705306 Eh     change       -0.1928279E-02 Eh
   gradient norm :     0.0357700 Eh/α   predicted    -0.1383445E-02 ( -28.25%)
   displ. norm   :     0.5053025 α      lambda       -0.3370318E-02
   maximum displ.:     0.2767988 α      in ANC's #2, #4, #1, ...

........................................................................
.............................. CYCLE   16 ..............................
........................................................................

 iter      E             dE          RMSdq      gap      omega  full diag
   1    -28.0685749 -0.280686E+02  0.245E-01    1.67       0.0  T
   2    -28.0685734  0.157969E-05  0.142E-01    1.67       1.0  T
   3    -28.0684658  0.107600E-03  0.130E-01    1.67       1.0  T
   4    -28.0686335 -0.167786E-03  0.255E-02    1.67       1.0  T
   5    -28.0686386 -0.509393E-05  0.107E-02    1.67       2.3  T
   6    -28.0686394 -0.788758E-06  0.522E-03    1.67       4.6  T
   7    -28.0686396 -0.172595E-06  0.238E-03    1.67      10.2  T
   8    -28.0686396 -0.818760E-08  0.119E-03    1.67      20.4  T
   9    -28.0686396 -0.786816E-08  0.446E-04    1.67      54.4  T
  10    -28.0686396 -0.122477E-08  0.137E-04    1.67     177.4  T
     SCC iter.                  ...        0 min,  1.809 sec
     gradient                   ...        0 min,  0.151 sec
 * total energy  :   -27.7731876 Eh     change       -0.2657027E-02 Eh
   gradient norm :     0.0515614 Eh/α   predicted    -0.2115434E-02 ( -20.38%)
   displ. norm   :     0.5263738 α      lambda       -0.5345421E-02
   maximum displ.:     0.3145415 α      in ANC's #2, #4, #3, ...

........................................................................
.............................. CYCLE   17 ..............................
........................................................................

 iter      E             dE          RMSdq      gap      omega  full diag
   1    -28.0665348 -0.280665E+02  0.292E-01    1.71       0.0  T
   2    -28.0665639 -0.291011E-04  0.177E-01    1.70       1.0  T
   3    -28.0664561  0.107776E-03  0.114E-01    1.71       1.0  T
   4    -28.0666020 -0.145872E-03  0.284E-02    1.70       1.0  T
   5    -28.0666098 -0.779956E-05  0.961E-03    1.70       2.5  T
   6    -28.0666100 -0.162396E-06  0.430E-03    1.70       5.6  T
   7    -28.0666102 -0.240400E-06  0.194E-03    1.70      12.5  T
   8    -28.0666102 -0.167445E-07  0.107E-03    1.70      22.6  T
   9    -28.0666102 -0.234284E-08  0.314E-04    1.70      77.1  T
  10    -28.0666102 -0.202451E-09  0.154E-04    1.70     157.1  T
     SCC iter.                  ...        0 min,  2.480 sec
     gradient                   ...        0 min,  0.153 sec
 * total energy  :   -27.7765845 Eh     change       -0.3396809E-02 Eh
   gradient norm :     0.0548257 Eh/α   predicted    -0.3413224E-02 (   0.48%)
   displ. norm   :     0.4552409 α      lambda       -0.4939290E-02
   maximum displ.:     0.2421867 α      in ANC's #2, #4, #1, ...

........................................................................
.............................. CYCLE   18 ..............................
........................................................................

 iter      E             dE          RMSdq      gap      omega  full diag
   1    -28.0703325 -0.280703E+02  0.280E-01    1.65       0.0  T
   2    -28.0703574 -0.249500E-04  0.148E-01    1.65       1.0  T
   3    -28.0703470  0.103541E-04  0.130E-01    1.65       1.0  T
   4    -28.0704587 -0.111653E-03  0.384E-02    1.65       1.0  T
   5    -28.0704675 -0.876528E-05  0.177E-02    1.65       1.4  T
   6    -28.0704702 -0.273189E-05  0.688E-03    1.65       3.5  T
   7    -28.0704707 -0.524832E-06  0.278E-03    1.65       8.7  T
   8    -28.0704708 -0.588833E-07  0.123E-03    1.65      19.8  T
   9    -28.0704708 -0.210108E-08  0.548E-04    1.65      44.2  T
  10    -28.0704708 -0.232916E-08  0.123E-04    1.65     197.5  T
     SCC iter.                  ...        0 min,  1.994 sec
     gradient                   ...        0 min,  0.276 sec
 * total energy  :   -27.7801051 Eh     change       -0.3520666E-02 Eh
   gradient norm :     0.0669679 Eh/α   predicted    -0.2981461E-02 ( -15.32%)
   displ. norm   :     0.2619898 α      lambda       -0.5320646E-02
   maximum displ.:     0.1130800 α      in ANC's #2, #25, #4, ...

........................................................................
.............................. CYCLE   19 ..............................
........................................................................

 iter      E             dE          RMSdq      gap      omega  full diag
   1    -28.0879923 -0.280880E+02  0.279E-01    1.67       0.0  T
   2    -28.0880477 -0.554426E-04  0.173E-01    1.66       1.0  T
   3    -28.0880254  0.222994E-04  0.120E-01    1.67       1.0  T
   4    -28.0881244 -0.989647E-04  0.398E-02    1.67       1.0  T
   5    -28.0881371 -0.127455E-04  0.120E-02    1.67       2.0  T
   6    -28.0881372 -0.239809E-07  0.709E-03    1.67       3.4  T
   7    -28.0881377 -0.555083E-06  0.250E-03    1.67       9.7  T
   8    -28.0881378 -0.780056E-07  0.930E-04    1.67      26.1  T
   9    -28.0881378 -0.123319E-08  0.313E-04    1.67      77.5  T
     SCC iter.                  ...        0 min,  1.956 sec
     gradient                   ...        0 min,  0.211 sec
 * total energy  :   -27.7830081 Eh     change       -0.2903014E-02 Eh
   gradient norm :     0.0540449 Eh/α   predicted    -0.2842927E-02 (  -2.07%)
   displ. norm   :     0.4992268 α      lambda       -0.3513200E-02
   maximum displ.:     0.2738217 α      in ANC's #2, #4, #1, ...

........................................................................
.............................. CYCLE   20 ..............................
........................................................................

 iter      E             dE          RMSdq      gap      omega  full diag
   1    -28.0844165 -0.280844E+02  0.210E-01    1.64       0.0  T
   2    -28.0844397 -0.231976E-04  0.140E-01    1.64       1.0  T
   3    -28.0844353  0.438389E-05  0.937E-02    1.63       1.0  T
   4    -28.0845080 -0.727363E-04  0.208E-02    1.64       1.2  T
   5    -28.0845091 -0.105327E-05  0.973E-03    1.64       2.5  T
   6    -28.0845096 -0.579293E-06  0.720E-03    1.64       3.4  T
   7    -28.0845102 -0.531621E-06  0.223E-03    1.64      10.9  T
   8    -28.0845102 -0.155862E-07  0.109E-03    1.64      22.3  T
   9    -28.0845102 -0.459585E-08  0.293E-04    1.64      82.7  T
  10    -28.0845102 -0.225825E-09  0.945E-05    1.64     256.6  T
     SCC iter.                  ...        0 min,  3.948 sec
     gradient                   ...        0 min,  0.393 sec
 * total energy  :   -27.7857573 Eh     change       -0.2749157E-02 Eh
   gradient norm :     0.0713751 Eh/α   predicted    -0.2194400E-02 ( -20.18%)
   displ. norm   :     0.4104122 α      lambda       -0.5115001E-02
   maximum displ.:     0.2094316 α      in ANC's #2, #4, #1, ...
 * RMSD in coord.:     1.0164217 α      energy gain  -0.1790023E+01 Eh

generating ANC from exact Hessian ...
Using Lindh-Hessian (1995)
 Shifting diagonal of input Hessian by    7.5964865345519127E-003
 Lowest  eigenvalues of input Hessian
    0.000000    0.000000    0.000000    0.000000    0.000000    0.000000
    0.010000    0.013106    0.013521    0.014474    0.016691    0.019209
    0.020222    0.032704    0.044806    0.057553    0.059566    0.060702
 Highest eigenvalues
    1.822652    2.021736    2.598015    2.819693    4.098497    6.413634


........................................................................
.............................. CYCLE   21 ..............................
........................................................................

 iter      E             dE          RMSdq      gap      omega  full diag
   1    -28.0877471 -0.280877E+02  0.234E-01    1.66       0.0  T
   2    -28.0877862 -0.390861E-04  0.167E-01    1.66       1.0  T
   3    -28.0879136 -0.127392E-03  0.978E-02    1.66       1.0  T
   4    -28.0879456 -0.320475E-04  0.258E-02    1.66       1.0  T
   5    -28.0879501 -0.446296E-05  0.643E-03    1.66       3.8  T
   6    -28.0879502 -0.617844E-07  0.344E-03    1.66       7.1  T
   7    -28.0879502 -0.592916E-07  0.112E-03    1.66      21.7  T
   8    -28.0879502  0.221646E-08  0.805E-04    1.66      30.1  T
   9    -28.0879502 -0.659329E-08  0.291E-04    1.66      83.2  T
     SCC iter.                  ...        0 min,  3.880 sec
     gradient                   ...        0 min,  0.325 sec
 * total energy  :   -27.7894526 Eh     change       -0.3695333E-02 Eh
   gradient norm :     0.0463567 Eh/α   predicted     0.0000000E+00 (-100.00%)
   displ. norm   :     0.6125875 α      lambda       -0.1112514E-01
   maximum displ.:     0.5134434 α      in ANC's #1, #6, #5, ...

........................................................................
.............................. CYCLE   22 ..............................
........................................................................

 iter      E             dE          RMSdq      gap      omega  full diag
   1    -28.0989632 -0.280990E+02  0.453E-01    1.75       0.0  T
   2    -28.0990195 -0.563037E-04  0.306E-01    1.73       1.0  T
   3    -28.0991808 -0.161278E-03  0.179E-01    1.74       1.0  T
   4    -28.0993766 -0.195832E-03  0.446E-02    1.74       1.0  T
   5    -28.0993789 -0.232555E-05  0.286E-02    1.74       1.0  T
   6    -28.0993847 -0.583096E-05  0.129E-02    1.74       1.9  T
   7    -28.0993868 -0.206360E-05  0.384E-03    1.74       6.3  T
   8    -28.0993869 -0.818149E-07  0.217E-03    1.74      11.2  T
   9    -28.0993869 -0.155286E-07  0.518E-04    1.74      46.8  T
  10    -28.0993869 -0.219515E-09  0.239E-04    1.74     101.3  T
     SCC iter.                  ...        0 min,  2.569 sec
     gradient                   ...        0 min,  0.184 sec
 * total energy  :   -27.7986420 Eh     change       -0.9189353E-02 Eh
   gradient norm :     0.0373657 Eh/α   predicted    -0.7650057E-02 ( -16.75%)
   displ. norm   :     0.6986823 α      lambda       -0.9052563E-02
   maximum displ.:     0.6164650 α      in ANC's #1, #6, #3, ...

........................................................................
.............................. CYCLE   23 ..............................
........................................................................

 iter      E             dE          RMSdq      gap      omega  full diag
   1    -28.1069395 -0.281069E+02  0.508E-01    1.80       0.0  T
   2    -28.1069920 -0.525286E-04  0.396E-01    1.77       1.0  T
   3    -28.1078105 -0.818510E-03  0.164E-01    1.78       1.0  T
   4    -28.1078723 -0.617438E-04  0.565E-02    1.78       1.0  T
   5    -28.1078961 -0.238121E-04  0.293E-02    1.78       1.0  T
   6    -28.1079017 -0.555995E-05  0.120E-02    1.78       2.0  T
   7    -28.1079030 -0.131360E-05  0.400E-03    1.78       6.1  T
   8    -28.1079030 -0.703123E-07  0.205E-03    1.78      11.8  T
   9    -28.1079031 -0.133537E-07  0.707E-04    1.78      34.3  T
  10    -28.1079031 -0.987729E-09  0.336E-04    1.78      72.1  T
     SCC iter.                  ...        0 min,  1.599 sec
     gradient                   ...        0 min,  0.179 sec
 * total energy  :   -27.8062489 Eh     change       -0.7606898E-02 Eh
   gradient norm :     0.0780316 Eh/α   predicted    -0.6735847E-02 ( -11.45%)
   displ. norm   :     0.7106814 α      lambda       -0.8973459E-02
   maximum displ.:     0.6621634 α      in ANC's #1, #6, #7, ...

........................................................................
.............................. CYCLE   24 ..............................
........................................................................

 iter      E             dE          RMSdq      gap      omega  full diag
   1    -28.1176342 -0.281176E+02  0.400E-01    1.81       0.0  T
   2    -28.1177701 -0.135847E-03  0.216E-01    1.79       1.0  T
   3    -28.1177055  0.646115E-04  0.104E-01    1.81       1.0  T
   4    -28.1178085 -0.103034E-03  0.394E-02    1.80       1.0  T
   5    -28.1178085 -0.355581E-07  0.277E-02    1.80       1.0  T
   6    -28.1178183 -0.975582E-05  0.843E-03    1.80       2.9  T
   7    -28.1178187 -0.469605E-06  0.401E-03    1.80       6.0  T
   8    -28.1178188 -0.780805E-07  0.231E-03    1.80      10.5  T
   9    -28.1178188 -0.181880E-07  0.774E-04    1.80      31.3  T
  10    -28.1178188 -0.112604E-08  0.196E-04    1.80     123.8  T
     SCC iter.                  ...        0 min,  2.634 sec
     gradient                   ...        0 min,  0.240 sec
 * total energy  :   -27.8132809 Eh     change       -0.7032052E-02 Eh
   gradient norm :     0.0450633 Eh/α   predicted    -0.6752885E-02 (  -3.97%)
   displ. norm   :     0.7626798 α      lambda       -0.8579433E-02
   maximum displ.:     0.6927524 α      in ANC's #1, #6, #7, ...

........................................................................
.............................. CYCLE   25 ..............................
........................................................................

 iter      E             dE          RMSdq      gap      omega  full diag
   1    -28.1212862 -0.281213E+02  0.464E-01    1.88       0.0  T
   2    -28.1214518 -0.165539E-03  0.369E-01    1.83       1.0  T
   3    -28.1221302 -0.678435E-03  0.144E-01    1.85       1.0  T
   4    -28.1221428 -0.125936E-04  0.569E-02    1.85       1.0  T
   5    -28.1221701 -0.273623E-04  0.274E-02    1.85       1.0  T
   6    -28.1221745 -0.438319E-05  0.110E-02    1.85       2.2  T
   7    -28.1221756 -0.108866E-05  0.308E-03    1.85       7.9  T
   8    -28.1221757 -0.450557E-07  0.171E-03    1.85      14.2  T
   9    -28.1221757 -0.663538E-08  0.844E-04    1.85      28.7  T
  10    -28.1221757 -0.284692E-08  0.195E-04    1.85     124.6  T
     SCC iter.                  ...        0 min,  2.320 sec
     gradient                   ...        0 min,  0.067 sec
 * total energy  :   -27.8196585 Eh     change       -0.6377541E-02 Eh
   gradient norm :     0.0899857 Eh/α   predicted    -0.6784928E-02 (   6.39%)
   displ. norm   :     0.6859669 α      lambda       -0.6462782E-02
   maximum displ.:     0.6336547 α      in ANC's #1, #6, #7, ...

........................................................................
.............................. CYCLE   26 ..............................
........................................................................

 iter      E             dE          RMSdq      gap      omega  full diag
   1    -28.1230278 -0.281230E+02  0.326E-01    1.86       0.0  T
   2    -28.1231043 -0.764909E-04  0.174E-01    1.85       1.0  T
   3    -28.1230565  0.478078E-04  0.787E-02    1.85       1.0  T
   4    -28.1231130 -0.564329E-04  0.390E-02    1.85       1.0  T
   5    -28.1231236 -0.106516E-04  0.187E-02    1.85       1.3  T
   6    -28.1231262 -0.259041E-05  0.621E-03    1.85       3.9  T
   7    -28.1231266 -0.440417E-06  0.221E-03    1.85      11.0  T
   8    -28.1231266 -0.123033E-08  0.144E-03    1.85      16.9  T
   9    -28.1231267 -0.746499E-08  0.537E-04    1.85      45.2  T
  10    -28.1231267 -0.179844E-08  0.112E-04    1.85     215.9  T
     SCC iter.                  ...        0 min,  1.776 sec
     gradient                   ...        0 min,  0.113 sec
 * total energy  :   -27.8249464 Eh     change       -0.5287973E-02 Eh
   gradient norm :     0.0578779 Eh/α   predicted    -0.4751966E-02 ( -10.14%)
   displ. norm   :     0.6261380 α      lambda       -0.6763887E-02
   maximum displ.:     0.5107401 α      in ANC's #1, #5, #27, ...

........................................................................
.............................. CYCLE   27 ..............................
........................................................................

 iter      E             dE          RMSdq      gap      omega  full diag
   1    -28.1360160 -0.281360E+02  0.329E-01    1.92       0.0  T
   2    -28.1362333 -0.217269E-03  0.281E-01    1.91       1.0  T
   3    -28.1366007 -0.367427E-03  0.120E-01    1.91       1.0  T
   4    -28.1366027 -0.194463E-05  0.246E-02    1.91       1.0  T
   5    -28.1366044 -0.169320E-05  0.116E-02    1.91       2.1  T
   6    -28.1366045 -0.172342E-06  0.583E-03    1.91       4.2  T
   7    -28.1366050 -0.436480E-06  0.209E-03    1.91      11.6  T
   8    -28.1366050 -0.506120E-07  0.123E-03    1.91      19.7  T
   9    -28.1366050 -0.642575E-08  0.436E-04    1.91      55.6  T
  10    -28.1366050 -0.248512E-09  0.197E-04    1.91     123.0  T
     SCC iter.                  ...        0 min,  2.471 sec
     gradient                   ...        0 min,  0.140 sec
 * total energy  :   -27.8280686 Eh     change       -0.3122162E-02 Eh
   gradient norm :     0.0805601 Eh/α   predicted    -0.4707811E-02 (  50.79%)
   displ. norm   :     0.6408038 α      lambda       -0.7025210E-02
   maximum displ.:     0.5496476 α      in ANC's #1, #3, #12, ...

........................................................................
.............................. CYCLE   28 ..............................
........................................................................

 iter      E             dE          RMSdq      gap      omega  full diag
   1    -28.1344672 -0.281345E+02  0.486E-01    1.88       0.0  T
   2    -28.1346506 -0.183422E-03  0.373E-01    1.85       1.0  T
   3    -28.1355194 -0.868787E-03  0.138E-01    1.86       1.0  T
   4    -28.1354944  0.249989E-04  0.725E-02    1.86       1.0  T
   5    -28.1355715 -0.771097E-04  0.269E-02    1.86       1.0  T
   6    -28.1355741 -0.258620E-05  0.969E-03    1.86       2.5  T
   7    -28.1355747 -0.617295E-06  0.418E-03    1.86       5.8  T
   8    -28.1355748 -0.764475E-07  0.168E-03    1.86      14.4  T
   9    -28.1355748 -0.473684E-08  0.591E-04    1.86      41.0  T
  10    -28.1355748 -0.141848E-08  0.177E-04    1.86     136.9  T
     SCC iter.                  ...        0 min,  1.879 sec
     gradient                   ...        0 min,  0.330 sec
 * total energy  :   -27.8317049 Eh     change       -0.3636255E-02 Eh
   gradient norm :     0.0690746 Eh/α   predicted    -0.4955011E-02 (  36.27%)
   displ. norm   :     0.5189413 α      lambda       -0.3066859E-02
   maximum displ.:     0.4633847 α      in ANC's #1, #5, #2, ...

........................................................................
.............................. CYCLE   29 ..............................
........................................................................

 iter      E             dE          RMSdq      gap      omega  full diag
   1    -28.1273080 -0.281273E+02  0.199E-01    1.87       0.0  T
   2    -28.1273249 -0.169047E-04  0.137E-01    1.87       1.0  T
   3    -28.1273427 -0.177963E-04  0.830E-02    1.87       1.0  T
   4    -28.1273781 -0.354286E-04  0.227E-02    1.87       1.1  T
   5    -28.1273835 -0.539681E-05  0.124E-02    1.87       1.9  T
   6    -28.1273851 -0.156964E-05  0.412E-03    1.87       5.9  T
   7    -28.1273851 -0.489765E-07  0.180E-03    1.87      13.5  T
   8    -28.1273852 -0.118754E-07  0.894E-04    1.87      27.1  T
   9    -28.1273852 -0.259035E-08  0.321E-04    1.87      75.5  T
     SCC iter.                  ...        0 min,  2.195 sec
     gradient                   ...        0 min,  0.021 sec
 * total energy  :   -27.8332696 Eh     change       -0.1564733E-02 Eh
   gradient norm :     0.0478216 Eh/α   predicted    -0.1946380E-02 (  24.39%)
   displ. norm   :     0.2959760 α      lambda       -0.2560970E-02
   maximum displ.:     0.1826316 α      in ANC's #1, #5, #12, ...

........................................................................
.............................. CYCLE   30 ..............................
........................................................................

 iter      E             dE          RMSdq      gap      omega  full diag
   1    -28.1378831 -0.281379E+02  0.150E-01    1.88       0.0  T
   2    -28.1379094 -0.262228E-04  0.113E-01    1.87       1.0  T
   3    -28.1379314 -0.220115E-04  0.569E-02    1.87       1.0  T
   4    -28.1379376 -0.623403E-05  0.132E-02    1.87       1.8  T
   5    -28.1379372  0.449805E-06  0.987E-03    1.87       2.5  T
   6    -28.1379384 -0.122138E-05  0.382E-03    1.87       6.3  T
   7    -28.1379385 -0.144664E-06  0.936E-04    1.87      25.9  T
   8    -28.1379385 -0.499477E-08  0.554E-04    1.87      43.8  T
     SCC iter.                  ...        0 min,  1.703 sec
     gradient                   ...        0 min,  0.221 sec
 * total energy  :   -27.8347472 Eh     change       -0.1477569E-02 Eh
   gradient norm :     0.0252181 Eh/α   predicted    -0.1392659E-02 (  -5.75%)
   displ. norm   :     0.4712228 α      lambda       -0.2552992E-02
   maximum displ.:     0.3464626 α      in ANC's #1, #12, #5, ...

........................................................................
.............................. CYCLE   31 ..............................
........................................................................

 iter      E             dE          RMSdq      gap      omega  full diag
   1    -28.1438650 -0.281439E+02  0.350E-01    1.91       0.0  T
   2    -28.1440378 -0.172760E-03  0.221E-01    1.88       1.0  T
   3    -28.1442578 -0.219957E-03  0.964E-02    1.89       1.0  T
   4    -28.1442762 -0.184640E-04  0.314E-02    1.89       1.0  T
   5    -28.1442774 -0.120363E-05  0.163E-02    1.89       1.5  T
   6    -28.1442800 -0.257441E-05  0.652E-03    1.89       3.7  T
   7    -28.1442805 -0.521501E-06  0.227E-03    1.89      10.7  T
   8    -28.1442806 -0.420063E-07  0.899E-04    1.89      27.0  T
   9    -28.1442806 -0.193734E-08  0.420E-04    1.89      57.7  T
     SCC iter.                  ...        0 min,  2.940 sec
     gradient                   ...        0 min,  0.291 sec
 * total energy  :   -27.8359115 Eh     change       -0.1164335E-02 Eh
   gradient norm :     0.0637879 Eh/α   predicted    -0.1559939E-02 (  33.98%)
   displ. norm   :     0.3643441 α      lambda       -0.1278843E-02
   maximum displ.:     0.3216204 α      in ANC's #1, #5, #12, ...

........................................................................
.............................. CYCLE   32 ..............................
........................................................................

 iter      E             dE          RMSdq      gap      omega  full diag
   1    -28.1393420 -0.281393E+02  0.139E-01    1.85       0.0  T
   2    -28.1393515 -0.956155E-05  0.743E-02    1.86       1.0  T
   3    -28.1393284  0.231604E-04  0.451E-02    1.85       1.0  T
   4    -28.1393560 -0.276427E-04  0.145E-02    1.85       1.7  T
   5    -28.1393576 -0.156688E-05  0.634E-03    1.85       3.8  T
   6    -28.1393579 -0.340560E-06  0.266E-03    1.85       9.1  T
   7    -28.1393579 -0.334810E-07  0.104E-03    1.85      23.3  T
   8    -28.1393579 -0.458022E-08  0.493E-04    1.85      49.2  T
   9    -28.1393579 -0.519801E-09  0.212E-04    1.85     114.3  T
     SCC iter.                  ...        0 min,  2.685 sec
     gradient                   ...        0 min,  0.081 sec
 * total energy  :   -27.8365470 Eh     change       -0.6355437E-03 Eh
   gradient norm :     0.0391205 Eh/α   predicted    -0.7242975E-03 (  13.97%)
   displ. norm   :     0.1448328 α      lambda       -0.1095232E-02
   maximum displ.:     0.0744895 α      in ANC's #3, #2, #5, ...

........................................................................
.............................. CYCLE   33 ..............................
........................................................................

 iter      E             dE          RMSdq      gap      omega  full diag
   1    -28.1435484 -0.281435E+02  0.146E-01    1.86       0.0  T
   2    -28.1435954 -0.470172E-04  0.148E-01    1.87       1.0  T
   3    -28.1437135 -0.118110E-03  0.549E-02    1.87       1.0  T
   4    -28.1437049  0.865210E-05  0.229E-02    1.87       1.1  T
   5    -28.1437145 -0.964789E-05  0.808E-03    1.87       3.0  T
   6    -28.1437150 -0.533931E-06  0.290E-03    1.87       8.4  T
   7    -28.1437151 -0.301244E-07  0.932E-04    1.87      26.0  T
   8    -28.1437151 -0.543170E-08  0.465E-04    1.87      52.1  T
     SCC iter.                  ...        0 min,  7.758 sec
     gradient                   ...        0 min,  0.280 sec
 * total energy  :   -27.8365873 Eh     change       -0.4021701E-04 Eh
   gradient norm :     0.0415669 Eh/α   predicted    -0.5591011E-03 (1290.21%)
   displ. norm   :     0.1458413 α      lambda       -0.1075288E-02
   maximum displ.:     0.0756272 α      in ANC's #4, #1, #3, ...

........................................................................
.............................. CYCLE   34 ..............................
........................................................................

 iter      E             dE          RMSdq      gap      omega  full diag
   1    -28.1436082 -0.281436E+02  0.165E-01    1.87       0.0  T
   2    -28.1436504 -0.421223E-04  0.113E-01    1.86       1.0  T
   3    -28.1437231 -0.727017E-04  0.423E-02    1.86       1.0  T
   4    -28.1437230  0.473890E-07  0.183E-02    1.86       1.3  T
   5    -28.1437263 -0.328326E-05  0.982E-03    1.86       2.5  T
   6    -28.1437271 -0.786660E-06  0.246E-03    1.86       9.9  T
   7    -28.1437271 -0.218400E-07  0.905E-04    1.86      26.8  T
   8    -28.1437271 -0.720024E-08  0.355E-04    1.86      68.3  T
     SCC iter.                  ...        0 min,  4.874 sec
     gradient                   ...        0 min,  0.367 sec
 * total energy  :   -27.8371161 Eh     change       -0.5288862E-03 Eh
   gradient norm :     0.0205532 Eh/α   predicted    -0.5490775E-03 (   3.82%)
   displ. norm   :     0.1432803 α      lambda       -0.4938591E-03
   maximum displ.:     0.0995827 α      in ANC's #1, #2, #12, ...

........................................................................
.............................. CYCLE   35 ..............................
........................................................................

 iter      E             dE          RMSdq      gap      omega  full diag
   1    -28.1436762 -0.281437E+02  0.135E-01    1.85       0.0  T
   2    -28.1437050 -0.288535E-04  0.873E-02    1.84       1.0  T
   3    -28.1437497 -0.446057E-04  0.371E-02    1.85       1.0  T
   4    -28.1437520 -0.235007E-05  0.102E-02    1.85       2.4  T
   5    -28.1437522 -0.181385E-06  0.430E-03    1.84       5.6  T
   6    -28.1437523 -0.811957E-07  0.131E-03    1.85      18.5  T
   7    -28.1437523 -0.138271E-07  0.825E-04    1.84      29.4  T
   8    -28.1437523 -0.474556E-08  0.421E-04    1.85      57.6  T
     SCC iter.                  ...        0 min,  2.248 sec
     gradient                   ...        0 min,  0.299 sec
 * total energy  :   -27.8371605 Eh     change       -0.4440295E-04 Eh
   gradient norm :     0.0340704 Eh/α   predicted    -0.2519987E-03 ( 467.53%)
   displ. norm   :     0.0732187 α      lambda       -0.3806952E-03
   maximum displ.:     0.0594986 α      in ANC's #2, #1, #5, ...

........................................................................
.............................. CYCLE   36 ..............................
........................................................................

 iter      E             dE          RMSdq      gap      omega  full diag
   1    -28.1435581 -0.281436E+02  0.573E-02    1.85       0.0  T
   2    -28.1435637 -0.553608E-05  0.443E-02    1.85       1.0  T
   3    -28.1435723 -0.868701E-05  0.200E-02    1.85       1.2  T
   4    -28.1435726 -0.227737E-06  0.321E-03    1.85       7.6  T
   5    -28.1435726 -0.172780E-07  0.171E-03    1.85      14.2  T
   6    -28.1435726 -0.146261E-07  0.708E-04    1.85      34.3  T
   7    -28.1435726 -0.143274E-08  0.403E-04    1.85      60.2  T
     SCC iter.                  ...        0 min,  1.981 sec
     gradient                   ...        0 min,  0.171 sec
 * total energy  :   -27.8374005 Eh     change       -0.2399368E-03 Eh
   gradient norm :     0.0146677 Eh/α   predicted    -0.1913674E-03 ( -20.24%)
   displ. norm   :     0.0843359 α      lambda       -0.2096191E-03
   maximum displ.:     0.0492999 α      in ANC's #2, #4, #3, ...

........................................................................
.............................. CYCLE   37 ..............................
........................................................................

 iter      E             dE          RMSdq      gap      omega  full diag
   1    -28.1430278 -0.281430E+02  0.499E-02    1.85       0.0  T
   2    -28.1430285 -0.716397E-06  0.264E-02    1.85       1.0  T
   3    -28.1430278  0.749001E-06  0.119E-02    1.85       2.0  T
   4    -28.1430288 -0.105959E-05  0.425E-03    1.85       5.7  T
   5    -28.1430287  0.750051E-07  0.244E-03    1.85      10.0  T
   6    -28.1430288 -0.962064E-07  0.628E-04    1.85      38.6  T
   7    -28.1430288 -0.211247E-08  0.330E-04    1.85      73.4  T
     SCC iter.                  ...        0 min,  2.058 sec
     gradient                   ...        0 min,  0.157 sec
 * total energy  :   -27.8375439 Eh     change       -0.1434133E-03 Eh
   gradient norm :     0.0077827 Eh/α   predicted    -0.1055538E-03 ( -26.40%)
   displ. norm   :     0.1856031 α      lambda       -0.3069412E-03
   maximum displ.:     0.1006158 α      in ANC's #5, #2, #4, ...

........................................................................
.............................. CYCLE   38 ..............................
........................................................................

 iter      E             dE          RMSdq      gap      omega  full diag
   1    -28.1428992 -0.281429E+02  0.108E-01    1.84       0.0  T
   2    -28.1429035 -0.431301E-05  0.509E-02    1.84       1.0  T
   3    -28.1429014  0.214662E-05  0.327E-02    1.84       1.0  T
   4    -28.1429067 -0.529949E-05  0.987E-03    1.84       2.5  T
   5    -28.1429065  0.206536E-06  0.516E-03    1.84       4.7  T
   6    -28.1429070 -0.491974E-06  0.135E-03    1.84      18.0  T
   7    -28.1429070 -0.165851E-07  0.731E-04    1.84      33.2  T
   8    -28.1429070 -0.192215E-08  0.392E-04    1.84      61.8  T
     SCC iter.                  ...        0 min,  0.901 sec
     gradient                   ...        0 min,  0.316 sec
 * total energy  :   -27.8377404 Eh     change       -0.1965028E-03 Eh
   gradient norm :     0.0082461 Eh/α   predicted    -0.1587558E-03 ( -19.21%)
   displ. norm   :     0.1933504 α      lambda       -0.2716725E-03
   maximum displ.:     0.1136746 α      in ANC's #5, #7, #2, ...

........................................................................
.............................. CYCLE   39 ..............................
........................................................................

 iter      E             dE          RMSdq      gap      omega  full diag
   1    -28.1415055 -0.281415E+02  0.110E-01    1.83       0.0  T
   2    -28.1415156 -0.101433E-04  0.535E-02    1.83       1.0  T
   3    -28.1415237 -0.803799E-05  0.359E-02    1.83       1.0  T
   4    -28.1415286 -0.495470E-05  0.841E-03    1.83       2.9  T
   5    -28.1415286 -0.154426E-07  0.423E-03    1.83       5.7  T
   6    -28.1415287 -0.970340E-07  0.128E-03    1.83      19.0  T
   7    -28.1415288 -0.227609E-07  0.540E-04    1.83      44.9  T
   8    -28.1415288 -0.297192E-08  0.279E-04    1.83      87.0  T
     SCC iter.                  ...        0 min,  1.644 sec
     gradient                   ...        0 min,  0.205 sec
 * total energy  :   -27.8379135 Eh     change       -0.1731201E-03 Eh
   gradient norm :     0.0094970 Eh/α   predicted    -0.1409136E-03 ( -18.60%)
   displ. norm   :     0.1785973 α      lambda       -0.2975912E-03
   maximum displ.:     0.1253164 α      in ANC's #5, #7, #2, ...

........................................................................
.............................. CYCLE   40 ..............................
........................................................................

 iter      E             dE          RMSdq      gap      omega  full diag
   1    -28.1431485 -0.281431E+02  0.974E-02    1.82       0.0  T
   2    -28.1431573 -0.879811E-05  0.493E-02    1.82       1.0  T
   3    -28.1431613 -0.399841E-05  0.339E-02    1.82       1.0  T
   4    -28.1431657 -0.432776E-05  0.889E-03    1.82       2.7  T
   5    -28.1431659 -0.210901E-06  0.526E-03    1.82       4.6  T
   6    -28.1431660 -0.153215E-06  0.181E-03    1.82      13.4  T
   7    -28.1431661 -0.569493E-07  0.766E-04    1.82      31.7  T
   8    -28.1431661 -0.297401E-08  0.426E-04    1.82      57.0  T
     SCC iter.                  ...        0 min,  2.172 sec
     gradient                   ...        0 min,  0.165 sec
 * total energy  :   -27.8380692 Eh     change       -0.1556847E-03 Eh
   gradient norm :     0.0141675 Eh/α   predicted    -0.1535427E-03 (  -1.38%)
   displ. norm   :     0.1931364 α      lambda       -0.2612136E-03
   maximum displ.:     0.1176870 α      in ANC's #5, #7, #2, ...

........................................................................
.............................. CYCLE   41 ..............................
........................................................................

 iter      E             dE          RMSdq      gap      omega  full diag
   1    -28.1417524 -0.281418E+02  0.107E-01    1.81       0.0  T
   2    -28.1417604 -0.797295E-05  0.565E-02    1.81       1.0  T
   3    -28.1417633 -0.291385E-05  0.388E-02    1.81       1.0  T
   4    -28.1417686 -0.531154E-05  0.781E-03    1.81       3.1  T
   5    -28.1417687 -0.906463E-07  0.354E-03    1.81       6.8  T
   6    -28.1417688 -0.888385E-07  0.665E-04    1.81      36.5  T
   7    -28.1417688 -0.149556E-08  0.357E-04    1.81      67.9  T
     SCC iter.                  ...        0 min,  1.753 sec
     gradient                   ...        0 min,  0.208 sec
 * total energy  :   -27.8382336 Eh     change       -0.1643743E-03 Eh
   gradient norm :     0.0168523 Eh/α   predicted    -0.1354787E-03 ( -17.58%)
   displ. norm   :     0.1708698 α      lambda       -0.3291189E-03
   maximum displ.:     0.1199452 α      in ANC's #5, #6, #7, ...

........................................................................
.............................. CYCLE   42 ..............................
........................................................................

 iter      E             dE          RMSdq      gap      omega  full diag
   1    -28.1453813 -0.281454E+02  0.116E-01    1.81       0.0  T
   2    -28.1453870 -0.563213E-05  0.730E-02    1.81       1.0  T
   3    -28.1453866  0.390508E-06  0.437E-02    1.81       1.0  T
   4    -28.1453941 -0.754582E-05  0.606E-03    1.81       4.0  T
   5    -28.1453942 -0.374651E-07  0.391E-03    1.81       6.2  T
   6    -28.1453944 -0.255099E-06  0.106E-03    1.81      22.8  T
   7    -28.1453944 -0.293057E-08  0.410E-04    1.81      59.1  T
   8    -28.1453944 -0.390720E-09  0.206E-04    1.81     117.9  T
     SCC iter.                  ...        0 min,  1.105 sec
     gradient                   ...        0 min,  0.356 sec
 * total energy  :   -27.8383110 Eh     change       -0.7741009E-04 Eh
   gradient norm :     0.0129745 Eh/α   predicted    -0.1693658E-03 ( 118.79%)
   displ. norm   :     0.1492516 α      lambda       -0.2380060E-03
   maximum displ.:     0.0907241 α      in ANC's #1, #2, #4, ...
 * RMSD in coord.:     1.5793418 α      energy gain  -0.5255369E-01 Eh

generating ANC from exact Hessian ...
Using Lindh-Hessian (1995)
 Shifting diagonal of input Hessian by    6.3959703817740663E-003
 Lowest  eigenvalues of input Hessian
    0.000000    0.000000    0.000000    0.000000    0.000000    0.000000
    0.010000    0.011372    0.012176    0.012781    0.015068    0.017502
    0.021731    0.030855    0.032829    0.050552    0.051052    0.067975
 Highest eigenvalues
    1.880781    2.030395    2.513400    2.622846    4.501279    5.641467


........................................................................
.............................. CYCLE   43 ..............................
........................................................................

 iter      E             dE          RMSdq      gap      omega  full diag
   1    -28.1432334 -0.281432E+02  0.989E-02    1.81       0.0  T
   2    -28.1432454 -0.120491E-04  0.506E-02    1.80       1.0  T
   3    -28.1432541 -0.866874E-05  0.319E-02    1.81       1.0  T
   4    -28.1432567 -0.263893E-05  0.872E-03    1.80       2.8  T
   5    -28.1432569 -0.198972E-06  0.477E-03    1.80       5.1  T
   6    -28.1432572 -0.254792E-06  0.210E-03    1.80      11.5  T
   7    -28.1432573 -0.484513E-07  0.664E-04    1.80      36.5  T
   8    -28.1432573 -0.306338E-08  0.326E-04    1.80      74.3  T
     SCC iter.                  ...        0 min,  1.842 sec
     gradient                   ...        0 min,  0.264 sec
 * total energy  :   -27.8384068 Eh     change       -0.9576873E-04 Eh
   gradient norm :     0.0118222 Eh/α   predicted     0.0000000E+00 (-100.00%)
   displ. norm   :     0.0388859 α      lambda       -0.1210585E-03
   maximum displ.:     0.0235673 α      in ANC's #3, #13, #2, ...

........................................................................
.............................. CYCLE   44 ..............................
........................................................................

 iter      E             dE          RMSdq      gap      omega  full diag
   1    -28.1446069 -0.281446E+02  0.284E-02    1.80       0.0  T
   2    -28.1446078 -0.814033E-06  0.173E-02    1.80       1.4  T
   3    -28.1446076  0.186696E-06  0.838E-03    1.80       2.9  T
   4    -28.1446080 -0.395926E-06  0.173E-03    1.80      14.1  T
   5    -28.1446080 -0.714720E-08  0.105E-03    1.80      23.2  T
   6    -28.1446080 -0.785552E-08  0.467E-04    1.80      51.9  T
   7    -28.1446080 -0.282997E-08  0.213E-04    1.80     113.8  T
     SCC iter.                  ...        0 min,  1.345 sec
     gradient                   ...        0 min,  0.112 sec
 * total energy  :   -27.8384829 Eh     change       -0.7615116E-04 Eh
   gradient norm :     0.0035534 Eh/α   predicted    -0.6062061E-04 ( -20.39%)
   displ. norm   :     0.0439044 α      lambda       -0.3100370E-04
   maximum displ.:     0.0276456 α      in ANC's #2, #3, #1, ...

........................................................................
.............................. CYCLE   45 ..............................
........................................................................

 iter      E             dE          RMSdq      gap      omega  full diag
   1    -28.1451121 -0.281451E+02  0.171E-02    1.81       0.0  T
   2    -28.1451124 -0.327946E-06  0.109E-02    1.81       2.2  T
   3    -28.1451125 -0.628865E-07  0.640E-03    1.81       3.8  T
   4    -28.1451127 -0.160570E-06  0.158E-03    1.81      15.4  T
   5    -28.1451127 -0.847870E-08  0.116E-03    1.81      21.0  T
   6    -28.1451127 -0.157097E-07  0.347E-04    1.81      69.9  T
   7    -28.1451127 -0.654435E-09  0.165E-04    1.81     146.6  T
     SCC iter.                  ...        0 min,  1.365 sec
     gradient                   ...        0 min,  0.275 sec
 * total energy  :   -27.8385032 Eh     change       -0.2027756E-04 Eh
   gradient norm :     0.0013753 Eh/α   predicted    -0.1553053E-04 ( -23.41%)
   displ. norm   :     0.0920150 α      lambda       -0.1999237E-04
   maximum displ.:     0.0526496 α      in ANC's #2, #3, #1, ...

........................................................................
.............................. CYCLE   46 ..............................
........................................................................

 iter      E             dE          RMSdq      gap      omega  full diag
   1    -28.1451010 -0.281451E+02  0.279E-02    1.81       0.0  T
   2    -28.1451013 -0.361983E-06  0.173E-02    1.81       1.4  T
   3    -28.1451009  0.395582E-06  0.107E-02    1.81       2.3  T
   4    -28.1451016 -0.670022E-06  0.231E-03    1.81      10.5  T
   5    -28.1451017 -0.634103E-07  0.127E-03    1.81      19.1  T
   6    -28.1451017 -0.186720E-07  0.456E-04    1.81      53.2  T
   7    -28.1451017 -0.883315E-09  0.228E-04    1.81     106.5  T
     SCC iter.                  ...        0 min,  0.997 sec
     gradient                   ...        0 min,  0.313 sec
 * total energy  :   -27.8385236 Eh     change       -0.2040639E-04 Eh
   gradient norm :     0.0035598 Eh/α   predicted    -0.1003410E-04 ( -50.83%)
   displ. norm   :     0.0907743 α      lambda       -0.2523425E-04
   maximum displ.:     0.0521518 α      in ANC's #2, #5, #3, ...

........................................................................
.............................. CYCLE   47 ..............................
........................................................................

 iter      E             dE          RMSdq      gap      omega  full diag
   1    -28.1447330 -0.281447E+02  0.233E-02    1.81       0.0  T
   2    -28.1447331 -0.879100E-07  0.137E-02    1.81       1.8  T
   3    -28.1447321  0.944144E-06  0.766E-03    1.81       3.2  T
   4    -28.1447332 -0.103092E-05  0.166E-03    1.81      14.6  T
   5    -28.1447332 -0.289481E-07  0.644E-04    1.81      37.6  T
   6    -28.1447332 -0.988070E-09  0.262E-04    1.81      92.6  T
     SCC iter.                  ...        0 min,  0.937 sec
     gradient                   ...        0 min,  0.206 sec
 * total energy  :   -27.8385456 Eh     change       -0.2201799E-04 Eh
   gradient norm :     0.0032553 Eh/α   predicted    -0.1271949E-04 ( -42.23%)
   displ. norm   :     0.2686096 α      lambda       -0.6773631E-04
   maximum displ.:     0.1477031 α      in ANC's #5, #2, #3, ...

........................................................................
.............................. CYCLE   48 ..............................
........................................................................

 iter      E             dE          RMSdq      gap      omega  full diag
   1    -28.1428297 -0.281428E+02  0.698E-02    1.81       0.0  T
   2    -28.1428310 -0.129855E-05  0.412E-02    1.81       1.0  T
   3    -28.1428263  0.469449E-05  0.170E-02    1.81       1.4  T
   4    -28.1428312 -0.488836E-05  0.558E-03    1.81       4.3  T
   5    -28.1428316 -0.388126E-06  0.180E-03    1.81      13.5  T
   6    -28.1428316 -0.109143E-07  0.703E-04    1.81      34.5  T
   7    -28.1428316 -0.346844E-08  0.295E-04    1.81      82.1  T
     SCC iter.                  ...        0 min,  1.972 sec
     gradient                   ...        0 min,  0.307 sec
 * total energy  :   -27.8385744 Eh     change       -0.2882783E-04 Eh
   gradient norm :     0.0042511 Eh/α   predicted    -0.3631027E-04 (  25.96%)
   displ. norm   :     0.0389858 α      lambda       -0.3524265E-04
   maximum displ.:     0.0228441 α      in ANC's #3, #2, #1, ...

........................................................................
.............................. CYCLE   49 ..............................
........................................................................

 iter      E             dE          RMSdq      gap      omega  full diag
   1    -28.1441585 -0.281442E+02  0.186E-02    1.80       0.0  T
   2    -28.1441588 -0.340739E-06  0.103E-02    1.80       2.4  T
   3    -28.1441587  0.737706E-07  0.553E-03    1.80       4.4  T
   4    -28.1441589 -0.159717E-06  0.156E-03    1.80      15.5  T
   5    -28.1441589 -0.768376E-08  0.627E-04    1.80      38.7  T
   6    -28.1441589 -0.775028E-09  0.332E-04    1.80      72.9  T
     SCC iter.                  ...        0 min,  1.600 sec
     gradient                   ...        0 min,  0.264 sec
 * total energy  :   -27.8385969 Eh     change       -0.2247311E-04 Eh
   gradient norm :     0.0018965 Eh/α   predicted    -0.1764960E-04 ( -21.46%)
   displ. norm   :     0.1587952 α      lambda       -0.3105475E-04
   maximum displ.:     0.1111933 α      in ANC's #5, #2, #3, ...

........................................................................
.............................. CYCLE   50 ..............................
........................................................................

 iter      E             dE          RMSdq      gap      omega  full diag
   1    -28.1447317 -0.281447E+02  0.429E-02    1.80       0.0  T
   2    -28.1447320 -0.293865E-06  0.248E-02    1.80       1.0  T
   3    -28.1447306  0.139198E-05  0.132E-02    1.80       1.8  T
   4    -28.1447321 -0.151590E-05  0.378E-03    1.80       6.4  T
   5    -28.1447323 -0.201647E-06  0.133E-03    1.80      18.2  T
   6    -28.1447323 -0.758866E-08  0.274E-04    1.80      88.6  T
   7    -28.1447323 -0.474881E-09  0.123E-04    1.80     196.8  T
     SCC iter.                  ...        0 min,  1.597 sec
     gradient                   ...        0 min,  0.256 sec
 * total energy  :   -27.8386286 Eh     change       -0.3171143E-04 Eh
   gradient norm :     0.0024091 Eh/α   predicted    -0.1570041E-04 ( -50.49%)
   displ. norm   :     0.1452722 α      lambda       -0.2421638E-04
   maximum displ.:     0.0997387 α      in ANC's #5, #2, #3, ...

........................................................................
.............................. CYCLE   51 ..............................
........................................................................

 iter      E             dE          RMSdq      gap      omega  full diag
   1    -28.1441066 -0.281441E+02  0.368E-02    1.80       0.0  T
   2    -28.1441069 -0.259679E-06  0.224E-02    1.80       1.1  T
   3    -28.1441061  0.772932E-06  0.104E-02    1.80       2.3  T
   4    -28.1441070 -0.934966E-06  0.129E-03    1.80      18.9  T
   5    -28.1441070 -0.366747E-09  0.716E-04    1.80      33.9  T
   6    -28.1441070 -0.130727E-08  0.424E-04    1.80      57.2  T
     SCC iter.                  ...        0 min,  1.337 sec
     gradient                   ...        0 min,  0.155 sec
 * total energy  :   -27.8386441 Eh     change       -0.1552576E-04 Eh
   gradient norm :     0.0030247 Eh/α   predicted    -0.1236273E-04 ( -20.37%)
   displ. norm   :     0.0793420 α      lambda       -0.1763320E-04
   maximum displ.:     0.0606070 α      in ANC's #5, #2, #6, ...

........................................................................
.............................. CYCLE   52 ..............................
........................................................................

 iter      E             dE          RMSdq      gap      omega  full diag
   1    -28.1445389 -0.281445E+02  0.224E-02    1.79       0.0  T
   2    -28.1445390 -0.121998E-06  0.141E-02    1.79       1.7  T
   3    -28.1445385  0.561016E-06  0.914E-03    1.79       2.7  T
   4    -28.1445392 -0.740794E-06  0.164E-03    1.79      14.8  T
   5    -28.1445392 -0.185329E-07  0.109E-03    1.79      22.2  T
   6    -28.1445392 -0.143768E-07  0.239E-04    1.79     101.6  T
   7    -28.1445392 -0.365777E-09  0.108E-04    1.79     223.8  T
     SCC iter.                  ...        0 min,  1.511 sec
     gradient                   ...        0 min,  0.166 sec
 * total energy  :   -27.8386560 Eh     change       -0.1183428E-04 Eh
   gradient norm :     0.0019019 Eh/α   predicted    -0.8871525E-05 ( -25.04%)
   displ. norm   :     0.1001482 α      lambda       -0.8993798E-05
   maximum displ.:     0.0722063 α      in ANC's #5, #2, #3, ...

........................................................................
.............................. CYCLE   53 ..............................
........................................................................

 iter      E             dE          RMSdq      gap      omega  full diag
   1    -28.1446489 -0.281446E+02  0.272E-02    1.79       0.0  T
   2    -28.1446491 -0.127076E-06  0.157E-02    1.79       1.5  T
   3    -28.1446484  0.644345E-06  0.645E-03    1.79       3.8  T
   4    -28.1446491 -0.666206E-06  0.233E-03    1.79      10.4  T
   5    -28.1446491 -0.575185E-07  0.977E-04    1.79      24.8  T
   6    -28.1446491 -0.549831E-08  0.237E-04    1.79     102.4  T
     SCC iter.                  ...        0 min,  1.225 sec
     gradient                   ...        0 min,  0.157 sec
 * total energy  :   -27.8386629 Eh     change       -0.6932010E-05 Eh
   gradient norm :     0.0011226 Eh/α   predicted    -0.4515698E-05 ( -34.86%)
   displ. norm   :     0.0248247 α      lambda       -0.4167528E-05
   maximum displ.:     0.0154195 α      in ANC's #5, #2, #3, ...

........................................................................
.............................. CYCLE   54 ..............................
........................................................................

 iter      E             dE          RMSdq      gap      omega  full diag
   1    -28.1451672 -0.281452E+02  0.165E-02    1.79       0.0  T
   2    -28.1451674 -0.126057E-06  0.774E-03    1.79       3.1  T
   3    -28.1451672  0.169131E-06  0.492E-03    1.79       4.9  T
   4    -28.1451674 -0.247997E-06  0.168E-03    1.79      14.4  T
   5    -28.1451675 -0.127679E-07  0.116E-03    1.79      20.9  T
   6    -28.1451675 -0.872244E-08  0.277E-04    1.79      87.5  T
   7    -28.1451675 -0.686235E-09  0.154E-04    1.79     157.0  T
     SCC iter.                  ...        0 min,  1.949 sec
     gradient                   ...        0 min,  0.222 sec
 * total energy  :   -27.8386649 Eh     change       -0.1967514E-05 Eh
   gradient norm :     0.0010238 Eh/α   predicted    -0.2085708E-05 (   6.01%)
   displ. norm   :     0.1021141 α      lambda       -0.4567852E-05
   maximum displ.:     0.0628832 α      in ANC's #5, #2, #3, ...

........................................................................
.............................. CYCLE   55 ..............................
........................................................................

 iter      E             dE          RMSdq      gap      omega  full diag
   1    -28.1442387 -0.281442E+02  0.280E-02    1.79       0.0  T
   2    -28.1442389 -0.215736E-06  0.163E-02    1.79       1.5  T
   3    -28.1442373  0.156319E-05  0.957E-03    1.79       2.5  T
   4    -28.1442391 -0.173740E-05  0.227E-03    1.79      10.7  T
   5    -28.1442391 -0.356860E-07  0.102E-03    1.79      23.7  T
   6    -28.1442391 -0.528307E-08  0.349E-04    1.79      69.6  T
   7    -28.1442391 -0.501082E-09  0.168E-04    1.79     144.7  T
     SCC iter.                  ...        0 min,  1.210 sec
     gradient                   ...        0 min,  0.227 sec
 * total energy  :   -27.8386647 Eh     change        0.2078841E-06 Eh
   gradient norm :     0.0016937 Eh/α   predicted    -0.2295387E-05 (*******%)
   displ. norm   :     0.0529325 α      lambda       -0.5894209E-05
   maximum displ.:     0.0386442 α      in ANC's #5, #2, #1, ...

........................................................................
.............................. CYCLE   56 ..............................
........................................................................

 iter      E             dE          RMSdq      gap      omega  full diag
   1    -28.1448986 -0.281449E+02  0.180E-02    1.79       0.0  T
   2    -28.1448988 -0.134929E-06  0.100E-02    1.79       2.4  T
   3    -28.1448986  0.121754E-06  0.452E-03    1.79       5.4  T
   4    -28.1448988 -0.143427E-06  0.171E-03    1.79      14.1  T
   5    -28.1448988 -0.147148E-07  0.815E-04    1.79      29.8  T
   6    -28.1448988 -0.555074E-08  0.366E-04    1.79      66.3  T
     SCC iter.                  ...        0 min,  1.917 sec
     gradient                   ...        0 min,  0.252 sec
 * total energy  :   -27.8386679 Eh     change       -0.3236934E-05 Eh
   gradient norm :     0.0006070 Eh/α   predicted    -0.2950874E-05 (  -8.84%)
   displ. norm   :     0.0160803 α      lambda       -0.1196818E-05
   maximum displ.:     0.0107526 α      in ANC's #2, #5, #1, ...

   *** GEOMETRY OPTIMIZATION CONVERGED AFTER 56 ITERATIONS ***

------------------------------------------------------------------------
 total energy gain   :        -1.8429333 Eh    -1156.4581 kcal/mol
 total RMSD          :         2.3925357 a0        1.2661 Å
 total power (kW/mol):       -86.4039436 (step)  -38.7443 (real)
------------------------------------------------------------------------

 ANCopt (total)                0 d,  0 h,  2 min,  4.886 sec
 optimizer setup                ...        0 min,  0.000 sec (  0.000%)
 model hessian                  ...        0 min,  0.009 sec (  0.007%)
 ANC generation                 ...        0 min,  0.001 sec (  0.001%)
 coordinate transformation      ...        0 min,  0.001 sec (  0.000%)
 single point calculation       ...        2 min,  3.941 sec ( 99.243%)
 optimization log               ...        0 min,  0.005 sec (  0.004%)
 hessian update                 ...        0 min,  0.894 sec (  0.716%)
 rational function              ...        0 min,  0.025 sec (  0.020%)

================
 final structure:
================
17
 xtb: 6.7.1 (edcfbbe)
C            1.57937869743997       -1.09126979653290        0.52813965236099
C            0.80156706555767       -0.31256646279101       -0.45296003406097
C            1.10905089317711        0.73688309118673       -1.29775273197766
C            0.03333933469394        1.58947617380943       -1.53060259984035
N           -1.03614154989859        1.39018420541502       -0.77858681180891
N           -0.94133080496406        0.30500217838113       -0.07521410057041
C           -1.67462836685466        0.11079592622549        1.13484982269652
S           -0.78345400048116       -1.42667613392975       -1.24097390661405
O           -0.97157008277589       -0.95399386504241       -2.62353813302845
H            2.21365906213757       -1.81094442019797        0.00898623717728
H            0.91977190171629       -1.64545324921051        1.19211208621636
H            2.21195759763838       -0.43502587014275        1.12639830175301
H            2.09184236451423        0.93045318438447       -1.68337311286305
H            0.04103140138838        2.43744358476638       -2.18891605431829
H           -2.74695230720644        0.15932546940786        0.93168720930634
H           -1.43235943529648       -0.86844011533379        1.54402021050748
H           -1.41516176075344        0.88480610959388        1.86190668506661

 Bond Distances (Angstroems)
 ---------------------------
C1-C2=1.4744         C1-H10=1.0908        C1-H11=1.0877        C1-H12=1.0903        C2-C1=1.4744         C2-C3=1.3819         
C2-N6=1.8873         C2-S8=2.0915         C3-C2=1.3819         C3-C4=1.3922         C3-H13=1.0733        C4-C3=1.3922         
C4-N5=1.3225         C4-H14=1.0735        N5-C4=1.3225         N5-N6=1.2967         N6-C2=1.8873         N6-N5=1.2967         
N6-C7=1.4282         N6-S8=2.0935         C7-N6=1.4282         C7-H15=1.0925        C7-H16=1.0886        C7-H17=1.0932        
S8-C2=2.0915         S8-N6=2.0935         S8-O9=1.4732         O9-S8=1.4732         H10-C1=1.0908        H11-C1=1.0877        
H12-C1=1.0903        H13-C3=1.0733        H14-C4=1.0735        H15-C7=1.0925        H16-C7=1.0886        H17-C7=1.0932        
 C  H  Rav=1.0862 sigma=0.0076  Rmin=1.0733  Rmax=1.0932     8
 C  C  Rav=1.4162 sigma=0.0414  Rmin=1.3819  Rmax=1.4744     3
 N  C  Rav=1.5460 sigma=0.2451  Rmin=1.3225  Rmax=1.8873     3
 N  N  Rav=1.2967 sigma=0.0000  Rmin=1.2967  Rmax=1.2967     1
 S  C  Rav=2.0915 sigma=0.0000  Rmin=2.0915  Rmax=2.0915     1
 S  N  Rav=2.0935 sigma=0.0000  Rmin=2.0935  Rmax=2.0935     1
 S  O  Rav=1.4732 sigma=0.0000  Rmin=1.4732  Rmax=1.4732     1

 selected bond angles (degree)
 --------------------
H10-C1-C2=109.79               H11-C1-C2=110.82               H11-C1-H10=107.88              H12-C1-C2=110.69               
H12-C1-H10=108.72              H12-C1-H11=108.88              C3-C2-C1=133.67                N6-C2-C1=121.79                
N6-C2-C3= 94.55                S8-C2-C1=111.66                S8-C2-C3=110.05                S8-C2-N6= 63.25                
C4-C3-C2=113.29                H13-C3-C2=124.08               H13-C3-C4=122.48               N5-C4-C3=115.94                
H14-C4-C3=125.50               H14-C4-N5=118.26               N6-N5-C4=112.05                N5-N6-C2=103.46                
C7-N6-C2=126.82                C7-N6-N5=122.40                S8-N6-C2= 63.14                S8-N6-N5=113.31                
S8-N6-C7=113.46                H15-C7-N6=109.90               H16-C7-N6=109.06               H16-C7-H15=109.17              
H17-C7-N6=110.20               H17-C7-H15=108.98              H17-C7-H16=109.52              N6-S8-C2= 53.61                
O9-S8-C2=106.23                O9-S8-N6=104.33                

 selected dihedral angles (degree)
 ---------------------------------
C3-C2-C1-H10=282.99           C3-C2-C1-H11=163.93           C3-C2-C1-H12= 43.02           N6-C2-C1-H10=146.88           
N6-C2-C1-H11= 27.81           N6-C2-C1-H12=266.91           S8-C2-C1-H10= 75.76           S8-C2-C1-H11=316.70           
S8-C2-C1-H12=195.79           C4-C3-C2-C1=211.03            C4-C3-C2-N6=354.80            C4-C3-C2-S8= 57.95            
H13-C3-C2-C1= 26.61           H13-C3-C2-N6=170.38           H13-C3-C2-S8=233.53           N5-C4-C3-C2=  9.36            
N5-C4-C3-H13=193.70           H14-C4-C3-C2=183.00           H14-C4-C3-H13=  7.34          N6-N5-C4-C3=351.34            
N6-N5-C4-H14=177.22           C2-N6-N5-C4=  4.40            C7-N6-N5-C4=156.26            S8-N6-N5-C4=298.15            
H15-C7-N6-C2=205.43           H15-C7-N6-N5= 60.39           H15-C7-N6-S8=278.55           H16-C7-N6-C2=325.07           
H16-C7-N6-N5=180.03           H16-C7-N6-S8= 38.19           H17-C7-N6-C2= 85.32           H17-C7-N6-N5=300.28           
H17-C7-N6-S8=158.44           N6-S8-C2-C1=115.76            N6-S8-C2-C3=275.13            O9-S8-C2-C1=211.83            
O9-S8-C2-C3= 11.20            O9-S8-C2-N6= 96.07            C2-S8-N6-N5= 93.78            C2-S8-N6-C7=239.17            
O9-S8-N6-C2=260.21            O9-S8-N6-N5=354.00            O9-S8-N6-C7=139.38            
           -------------------------------------------------
          |                Final Singlepoint                |
           -------------------------------------------------

          ...................................................
          :                      SETUP                      :
          :.................................................:
          :  # basis functions                  50          :
          :  # atomic orbitals                  49          :
          :  # shells                           27          :
          :  # electrons                        50          :
          :  max. iterations                   250          :
          :  Hamiltonian                  GFN2-xTB          :
          :  restarted?                      false          :
          :  GBSA solvation                  false          :
          :  PC potential                    false          :
          :  electronic temp.          300.0000000     K    :
          :  accuracy                    1.0000000          :
          :  -> integral cutoff          0.2500000E+02      :
          :  -> integral neglect         0.1000000E-07      :
          :  -> SCF convergence          0.1000000E-05 Eh   :
          :  -> wf. convergence          0.1000000E-03 e    :
          :  Broyden damping             0.4000000          :
          :  net charge                          0          :
          :  unpaired electrons                  0          :
          ...................................................

 iter      E             dE          RMSdq      gap      omega  full diag
   1    -28.1448988 -0.281449E+02  0.129E-04    1.79       0.0  T
   2    -28.1448988 -0.142322E-10  0.823E-05    1.79     294.5  T
   3    -28.1448988  0.569855E-11  0.585E-05    1.79     414.8  T

   *** convergence criteria satisfied after 3 iterations ***

         #    Occupation            Energy/Eh            Energy/eV
      -------------------------------------------------------------
         1        2.0000           -0.7397479             -20.1296
       ...           ...                  ...                  ...
        19        2.0000           -0.4718474             -12.8396
        20        2.0000           -0.4619508             -12.5703
        21        2.0000           -0.4562789             -12.4160
        22        2.0000           -0.4196837             -11.4202
        23        2.0000           -0.4036149             -10.9829
        24        2.0000           -0.3804598             -10.3528
        25        2.0000           -0.3407726              -9.2729 (HOMO)
        26                         -0.2749630              -7.4821 (LUMO)
        27                         -0.2335821              -6.3561
        28                         -0.2236548              -6.0860
        29                         -0.1587314              -4.3193
        30                         -0.1371719              -3.7326
       ...                                ...                  ...
        49                          0.8432169              22.9451
      -------------------------------------------------------------
                  HL-Gap            0.0658097 Eh            1.7908 eV
             Fermi-level           -0.3078678 Eh           -8.3775 eV

 SCC (total)                   0 d,  0 h,  0 min,  0.883 sec
 SCC setup                      ...        0 min,  0.015 sec (  1.743%)
 Dispersion                     ...        0 min,  0.030 sec (  3.389%)
 classical contributions        ...        0 min,  0.009 sec (  0.963%)
 integral evaluation            ...        0 min,  0.027 sec (  3.092%)
 iterations                     ...        0 min,  0.489 sec ( 55.377%)
 molecular gradient             ...        0 min,  0.313 sec ( 35.416%)
 printout                       ...        0 min,  0.000 sec (  0.018%)

         :::::::::::::::::::::::::::::::::::::::::::::::::::::
         ::                     SUMMARY                     ::
         :::::::::::::::::::::::::::::::::::::::::::::::::::::
         :: total energy             -27.838667913345 Eh    ::
         :: gradient norm              0.000608360484 Eh/a0 ::
         :: HOMO-LUMO gap              1.790771992429 eV    ::
         ::.................................................::
         :: SCC energy               -28.144821532368 Eh    ::
         :: -> isotropic ES            0.040722635642 Eh    ::
         :: -> anisotropic ES         -0.001974895887 Eh    ::
         :: -> anisotropic XC          0.015209213611 Eh    ::
         :: -> dispersion             -0.015693112790 Eh    ::
         :: repulsion energy           0.305346744442 Eh    ::
         :: add. restraining           0.000806874580 Eh    ::
         :: total charge              -0.000000000000 e     ::
         :::::::::::::::::::::::::::::::::::::::::::::::::::::

           -------------------------------------------------
          |                Property Printout                |
           -------------------------------------------------

    * Orbital Energies and Occupations

         #    Occupation            Energy/Eh            Energy/eV
      -------------------------------------------------------------
         1        2.0000           -0.7397479             -20.1296
       ...           ...                  ...                  ...
        13        2.0000           -0.5126089             -13.9488
        14        2.0000           -0.5080572             -13.8249
        15        2.0000           -0.5018437             -13.6559
        16        2.0000           -0.4928666             -13.4116
        17        2.0000           -0.4883624             -13.2890
        18        2.0000           -0.4836153             -13.1598
        19        2.0000           -0.4718474             -12.8396
        20        2.0000           -0.4619508             -12.5703
        21        2.0000           -0.4562789             -12.4160
        22        2.0000           -0.4196837             -11.4202
        23        2.0000           -0.4036149             -10.9829
        24        2.0000           -0.3804598             -10.3528
        25        2.0000           -0.3407726              -9.2729 (HOMO)
        26                         -0.2749630              -7.4821 (LUMO)
        27                         -0.2335821              -6.3561
        28                         -0.2236548              -6.0860
        29                         -0.1587314              -4.3193
        30                         -0.1371719              -3.7326
        31                          0.0055450               0.1509
        32                          0.0484805               1.3192
        33                          0.0602310               1.6390
        34                          0.0898712               2.4455
        35                          0.1040538               2.8314
        36                          0.1125514               3.0627
       ...                                ...                  ...
        49                          0.8432169              22.9451
      -------------------------------------------------------------
                  HL-Gap            0.0658097 Eh            1.7908 eV
             Fermi-level           -0.3078678 Eh           -8.3775 eV

     #   Z          covCN         q      C6AA      α(0)
     1   6 C        3.755    -0.109    22.632     6.783
     2   6 C        3.441     0.009    23.068     7.292
     3   6 C        2.926    -0.073    29.814     8.954
     4   6 C        2.962     0.047    26.950     8.515
     5   7 N        1.927    -0.182    25.757     7.525
     6   7 N        3.329     0.025    20.807     6.775
     7   6 C        3.692    -0.056    21.761     6.675
     8  16 S        2.511     0.258   130.967    19.261
     9   8 O        0.859    -0.421    22.096     6.302
    10   1 H        0.924     0.068     2.108     2.270
    11   1 H        0.925     0.058     2.220     2.330
    12   1 H        0.924     0.060     2.196     2.318
    13   1 H        0.926     0.050     2.318     2.381
    14   1 H        0.926     0.047     2.362     2.403
    15   1 H        0.924     0.079     1.992     2.207
    16   1 H        0.925     0.067     2.119     2.276
    17   1 H        0.924     0.072     2.066     2.248

 Mol. C6AA /au·bohr⁶  :       3878.917912
 Mol. C8AA /au·bohr⁸  :     102638.595827
 Mol. α(0) /au        :         96.516231


Wiberg/Mayer (AO) data.
largest (>0.10) Wiberg bond orders for each atom

 ---------------------------------------------------------------------------
     #   Z sym  total        # sym  WBO       # sym  WBO       # sym  WBO
 ---------------------------------------------------------------------------
     1   6 C    3.995 --     2 C    1.050    11 H    0.972    12 H    0.968
                            10 H    0.958
     2   6 C    3.940 --     3 C    1.390     1 C    1.050     8 S    0.639
                             6 N    0.549     5 N    0.156
     3   6 C    3.974 --     4 C    1.398     2 C    1.390    13 H    0.945
                             8 S    0.108
     4   6 C    3.976 --     5 N    1.412     3 C    1.398    14 H    0.966
     5   7 N    3.138 --     4 C    1.412     6 N    1.288     8 S    0.162
                             2 C    0.156
     6   7 N    3.650 --     5 N    1.288     7 C    1.013     2 C    0.549
                             8 S    0.543     9 O    0.101
     7   6 C    3.968 --     6 N    1.013    16 H    0.976    17 H    0.966
                            15 H    0.964
     8  16 S    3.433 --     9 O    1.845     2 C    0.639     6 N    0.543
                             5 N    0.162     3 C    0.108
     9   8 O    2.128 --     8 S    1.845     6 N    0.101
    10   1 H    0.995 --     1 C    0.958
    11   1 H    0.996 --     1 C    0.972
    12   1 H    0.996 --     1 C    0.968
    13   1 H    0.996 --     3 C    0.945
    14   1 H    0.998 --     4 C    0.966
    15   1 H    0.992 --     7 C    0.964
    16   1 H    0.996 --     7 C    0.976
    17   1 H    0.995 --     7 C    0.966
 ---------------------------------------------------------------------------

Topologies differ in total number of bonds
Writing topology from bond orders to xtbtopo.mol

molecular dipole:
                 x           y           z       tot (Debye)
 q only:        0.476      -0.283       2.048
   full:        0.698      -0.307       1.882       5.160
molecular quadrupole (traceless):
                xx          xy          yy          xz          yz          zz
 q only:        5.100      -0.348       3.562      -7.271      -4.382      -8.663
  q+dip:        5.701       0.412       2.514      -7.776      -4.629      -8.216
   full:        5.076       0.761       2.599      -7.554      -3.788      -7.676

           -------------------------------------------------
          |                Geometry Summary                 |
           -------------------------------------------------

      molecular mass/u    :      144.1948042
   center of mass at/Å    :       -0.3069501      -0.1747990      -0.7652692
  moments of inertia/u·Å² :        0.3225591E+03   0.3351050E+03   0.3483579E+03
rotational constants/cm⁻¹ :        0.5226215E-01   0.5030552E-01   0.4839171E-01

 * 15 selected distances

     #   Z          #   Z                                           value/Å
     1   6 C        2   6 C                                       1.4744242 (max)
     2   6 C        3   6 C                                       1.3818704
     3   6 C        4   6 C                                       1.3922247
     4   6 C        5   7 N                                       1.3225108
     5   7 N        6   7 N                                       1.2966660
     6   7 N        7   6 C                                       1.4281794
     8  16 S        9   8 O                                       1.4731940
     1   6 C       10   1 H                                       1.0907629
     1   6 C       11   1 H                                       1.0876856
     1   6 C       12   1 H                                       1.0902870
     3   6 C       13   1 H                                       1.0733367 (min)
     4   6 C       14   1 H                                       1.0735384
     7   6 C       15   1 H                                       1.0924784
     7   6 C       16   1 H                                       1.0885854
     7   6 C       17   1 H                                       1.0931727

 * 5 distinct bonds (by element types)

   Z      Z             #   av. dist./Å        max./Å        min./Å
   1 H    6 C           8     1.0862309     1.0931727     1.0733367
   6 C    6 C           3     1.4161731     1.4744242     1.3818704
   6 C    7 N           2     1.3753451     1.4281794     1.3225108
   7 N    7 N           1     1.2966660     1.2966660     1.2966660
   8 O   16 S           1     1.4731940     1.4731940     1.4731940


optimized geometry written to: xtbopt.xyz


           -------------------------------------------------
          | TOTAL ENERGY              -27.838667913345 Eh   |
          | GRADIENT NORM               0.000608360484 Eh/α |
          | HOMO-LUMO GAP               1.790771992429 eV   |
           -------------------------------------------------

------------------------------------------------------------------------
 * finished run on 2026/08/20 at 02:41:29.159     
------------------------------------------------------------------------
 total:
 * wall-time:     0 d,  0 h,  2 min,  8.344 sec
 *  cpu-time:     0 d,  0 h,  5 min,  7.199 sec
 * ratio c/w:     2.394 speedup
 SCF:
 * wall-time:     0 d,  0 h,  0 min,  2.317 sec
 *  cpu-time:     0 d,  0 h,  0 min,  9.101 sec
 * ratio c/w:     3.928 speedup
 ANC optimizer:
 * wall-time:     0 d,  0 h,  2 min,  5.777 sec
 *  cpu-time:     0 d,  0 h,  4 min, 57.605 sec
 * ratio c/w:     2.366 speedup

