17
 energy: -27.841113124361 gnorm: 0.000602866935 xtb: 6.7.1 (edcfbbe)
C           -2.60452312753574       -0.16500809445038        0.51139459975844
C           -1.27785785261905        0.12453709043459       -0.05577806954954
C           -0.65260654567750       -0.20950448531702       -1.26746519421604
C            0.70390063955764       -0.29952648501415       -1.13648794263581
N            1.11293199237854       -0.30214977605561        0.15816662712651
C            2.48858390497955       -0.42561544700553        0.56489153418265
N            0.20282413098278       -0.05016508184441        1.08084498471530
S           -0.42907902761842        1.89647993729117        0.65839627736929
O            0.53878021205624        2.27243430434779       -0.39097214218257
H           -2.82577525547827       -1.23123508249229        0.45049020867778
H           -2.63784371865720        0.14285646585296        1.55285541336627
H           -3.36783708774444        0.38356444292713       -0.04184801660835
H           -1.18377802765949       -0.31662536631675       -2.19422283598784
H            1.42860878712240       -0.44782272620615       -1.91533915214047
H            2.50882613311965       -0.70649476259493        1.61681132091663
H            3.01189426818358        0.52595071522431        0.44037328258805
H            2.98295056462579       -1.19167566876470       -0.03211090537708
