17
 energy: -27.872967353844 gnorm: 0.000892462931 xtb: 6.7.1 (edcfbbe)
C           -2.88661713643682        0.03083265611470        0.28447463366628
C           -1.41649575433705        0.11303875073382        0.10301652908076
C           -0.70908247921904       -0.39349289174440       -0.92003387878824
C            0.70974793676916       -0.38274172973918       -0.94033388752555
N            1.40790198170097       -0.14811897373956        0.15088463755160
C            2.84957571216645       -0.32667012535376        0.13753312257862
N            0.93167721599447        0.21938206485835        1.30147799590631
S           -0.50870340333178        1.09156346587516        1.34976938700632
O           -0.26308365433183        2.35812935518142        0.65078990306268
H           -3.35518224673998       -0.54215537757606       -0.51347230589312
H           -3.11665380357942       -0.43980571157729        1.24151516921320
H           -3.31385360006139        1.03366320036625        0.30235426610608
H           -1.20558063249955       -0.86031816202261       -1.76195862193003
H            1.24984033570816       -0.67327043366354       -1.82531505169391
H            3.16659202879279       -0.54924905024815        1.15440971921986
H            3.32598564827522        0.60190937760727       -0.17980374375877
H            3.13393184112969       -1.13269643507252       -0.53530788380216
