17
 energy: -27.889130681822 gnorm: 0.000454363433 xtb: 6.7.1 (edcfbbe)
C            2.25463757907132       -1.41358667751083       -0.17161050958939
C            1.17433776985571       -0.40050973118147       -0.32116825358171
C            1.28390194254964        0.77560239682982       -0.94732638020369
C            0.20259094068277        1.71059217011124       -1.05598988927510
N           -0.96167127300765        1.55583409744001       -0.54013735599065
N           -1.26460891720350        0.50346391430526        0.18156697568210
C           -2.62694600859612        0.41657196562552        0.65160294759689
S           -0.39483580825232       -1.01569357627921        0.35925848641451
O           -0.88680210854287       -1.96642319536505       -0.63214935240268
H            1.95319516243265       -2.34242115135405       -0.65790144140897
H            2.41990807189690       -1.63289024306450        0.88419434466505
H            3.18680792964321       -1.06864481412263       -0.61445145556891
H            2.22859500577848        1.05965161860326       -1.39379450212839
H            0.34268512438252        2.62909996773319       -1.60369064390577
H           -3.20348810060228       -0.28464314770351        0.04274915051422
H           -2.62799948045308        0.07085862692825        1.68586990213759
H           -3.08030781963536        1.40313778900466        0.58916069704457
