 Entering Gaussian System
 *********************************************
 Gaussian 98:
 frequency output generated by the xtb code
 *********************************************
                         Standard orientation:
 --------------------------------------------------------------------
  Center     Atomic     Atomic              Coordinates (Angstroms)
  Number     Number      Type              X           Y           Z
 --------------------------------------------------------------------
    1          6             0       -2.472043   -0.247386   -1.087123
    2          6             0       -1.327980   -0.036003   -0.163027
    3          6             0       -0.469180   -0.999611    0.348030
    4          6             0        0.806343   -0.559622    0.631013
    5          7             0        1.122790    0.595860    0.021117
    6          6             0        2.468861    0.990627   -0.303993
    7          7             0        0.137403    1.326828   -0.487363
    8         16             0       -1.157315    1.580641    0.618638
    9          8             0       -0.673255    1.380816    1.981192
   10          1             0       -3.409609   -0.274234   -0.529229
   11          1             0       -2.363834   -1.175850   -1.644805
   12          1             0       -2.527879    0.580595   -1.790989
   13          1             0       -0.739737   -2.038619    0.406546
   14          1             0        1.582183   -1.124566    1.114030
   15          1             0        3.102751    0.113551   -0.427988
   16          1             0        2.434124    1.560818   -1.231768
   17          1             0        2.879695    1.628284    0.483049
 --------------------------------------------------------------------
     1 basis functions        1 primitive gaussians
     1 alpha electrons        1 beta electrons

 Harmonic frequencies (cm**-1), IR intensities (km*mol⁻¹),
 Raman scattering activities (A**4/amu), Raman depolarization ratios,
 reduced masses (AMU), force constants (mDyne/A) and normal coordinates:
                      1                      2                      3
                        a                      a                      a 
 Frequencies --  -381.4632                82.7596                87.0132
 Red. masses --    14.0562                 1.2728                 1.5048
 Frc consts  --     0.0000                 0.0000                 0.0000
 IR Inten    --    19.7321                 1.5519                 0.0828
 Raman Activ --     0.0000                 0.0000                 0.0000
 Depolar     --     0.0000                 0.0000                 0.0000
 Atom AN      X      Y      Z        X      Y      Z        X      Y      Z
   1   6    -0.19  -0.11   0.09    -0.04  -0.01   0.04    -0.04   0.05   0.01
   2   6    -0.37  -0.26   0.28    -0.01  -0.00   0.00    -0.02   0.00  -0.01
   3   6    -0.08   0.01  -0.10    -0.02  -0.00   0.01    -0.02  -0.02  -0.05
   4   6    -0.03   0.13   0.00    -0.02  -0.01   0.01    -0.02  -0.03  -0.04
   5   7     0.01   0.04  -0.03     0.00  -0.02   0.01    -0.01  -0.02  -0.01
   6   6     0.06  -0.05   0.03     0.01  -0.03   0.04    -0.03   0.09   0.06
   7   7     0.37   0.52   0.21     0.03   0.00  -0.01    -0.00  -0.01  -0.02
   8  16     0.14  -0.16  -0.22     0.02   0.01  -0.06     0.04  -0.02   0.03
   9   8    -0.05  -0.02  -0.07     0.01   0.05  -0.03     0.08  -0.06  -0.00
  10   1    -0.10  -0.00  -0.04     0.06  -0.57   0.10    -0.02   0.09  -0.00
  11   1    -0.05  -0.03   0.02     0.24   0.27  -0.39    -0.05  -0.01   0.04
  12   1     0.02  -0.02   0.03    -0.36   0.28   0.38     0.03  -0.01  -0.03
  13   1     0.11  -0.04  -0.19    -0.00  -0.00  -0.01    -0.01  -0.01  -0.03
  14   1    -0.01   0.01  -0.03    -0.01  -0.00   0.01    -0.01  -0.01  -0.01
  15   1     0.01  -0.02   0.01     0.02  -0.01   0.08     0.13   0.05   0.57
  16   1     0.02  -0.01   0.01     0.02  -0.06  -0.02     0.08  -0.44  -0.27
  17   1     0.01  -0.02   0.01    -0.02   0.04  -0.02    -0.23   0.48  -0.24
                      4                      5                      6
                        a                      a                      a 
 Frequencies --   105.6519               166.3842               215.6690
 Red. masses --    10.5645                12.7356                11.7020
 Frc consts  --     0.0000                 0.0000                 0.0000
 IR Inten    --     5.3693                 3.0687                 5.3202
 Raman Activ --     0.0000                 0.0000                 0.0000
 Depolar     --     0.0000                 0.0000                 0.0000
 Atom AN      X      Y      Z        X      Y      Z        X      Y      Z
   1   6    -0.21   0.01   0.18    -0.13  -0.00   0.29    -0.27  -0.10   0.26
   2   6    -0.05  -0.04  -0.01     0.13   0.04  -0.03     0.13   0.18  -0.29
   3   6    -0.06  -0.07  -0.07     0.12  -0.09  -0.20     0.02   0.20  -0.01
   4   6    -0.05  -0.05  -0.08     0.18  -0.28  -0.32    -0.03   0.19   0.15
   5   7    -0.07  -0.09  -0.13     0.15  -0.13  -0.03     0.09   0.14   0.07
   6   6    -0.03   0.29   0.51     0.12   0.03   0.06     0.15  -0.09   0.02
   7   7    -0.06  -0.11  -0.22     0.10  -0.07   0.10     0.09   0.01  -0.10
   8  16     0.10  -0.03  -0.10    -0.06   0.10  -0.07     0.06   0.07  -0.10
   9   8     0.39   0.03  -0.17    -0.50   0.32   0.15    -0.18  -0.54  -0.08
  10   1    -0.03   0.04   0.10     0.01   0.04   0.17     0.01  -0.02   0.23
  11   1    -0.11  -0.01   0.06    -0.10  -0.02   0.11    -0.14  -0.07   0.13
  12   1    -0.07  -0.01   0.04    -0.09  -0.02   0.06    -0.21  -0.08   0.02
  13   1    -0.02  -0.02  -0.03    -0.01  -0.02  -0.08    -0.03   0.07   0.07
  14   1    -0.01  -0.01  -0.02     0.06  -0.12  -0.15    -0.04   0.07   0.11
  15   1     0.05   0.13   0.09     0.06   0.03   0.03     0.00  -0.06   0.02
  16   1     0.05   0.21   0.22     0.04   0.01   0.02     0.07  -0.04  -0.01
  17   1    -0.12  -0.01   0.28    -0.00   0.02   0.03     0.07  -0.03  -0.01
                      7                      8                      9
                        a                      a                      a 
 Frequencies --   251.7116               281.7689               335.7632
 Red. masses --    12.7150                12.9582                11.7295
 Frc consts  --     0.0000                 0.0000                 0.0000
 IR Inten    --     0.2439                10.2138                 3.1518
 Raman Activ --     0.0000                 0.0000                 0.0000
 Depolar     --     0.0000                 0.0000                 0.0000
 Atom AN      X      Y      Z        X      Y      Z        X      Y      Z
   1   6     0.12  -0.51  -0.12     0.07   0.20  -0.02     0.07   0.10   0.03
   2   6    -0.12   0.21   0.03    -0.10  -0.03   0.22     0.04  -0.07   0.08
   3   6    -0.17   0.14   0.02    -0.09   0.06   0.38     0.13   0.02   0.09
   4   6    -0.06  -0.09  -0.23     0.04  -0.00   0.03     0.09   0.23  -0.12
   5   7    -0.03  -0.09  -0.21     0.08  -0.24  -0.38    -0.05   0.12  -0.44
   6   6     0.03  -0.04   0.09     0.00   0.25  -0.06     0.24  -0.34   0.19
   7   7    -0.00   0.11   0.02     0.06  -0.10  -0.08    -0.17   0.13  -0.19
   8  16     0.12   0.35   0.19     0.21   0.02  -0.11    -0.25  -0.13   0.13
   9   8     0.02  -0.09   0.11    -0.38  -0.30   0.07    -0.06   0.05   0.07
  10   1     0.00  -0.24  -0.09    -0.02   0.06  -0.07     0.01   0.05  -0.01
  11   1     0.21  -0.19   0.07     0.02   0.09  -0.06     0.00   0.04  -0.02
  12   1    -0.05  -0.23  -0.13     0.10   0.11   0.05     0.07   0.05   0.04
  13   1    -0.10   0.05   0.01    -0.04   0.03   0.18     0.08  -0.00   0.06
  14   1    -0.02  -0.07  -0.12     0.02   0.00   0.01     0.06   0.11  -0.04
  15   1     0.02  -0.01   0.06     0.09   0.14  -0.04    -0.03  -0.19   0.18
  16   1     0.07  -0.00   0.03    -0.02   0.12   0.01     0.32  -0.11   0.04
  17   1    -0.05  -0.02   0.06    -0.10   0.07   0.04     0.03  -0.15   0.12
                     10                     11                     12
                        a                      a                      a 
 Frequencies --   423.6573               473.4464               496.2966
 Red. masses --    15.9387                15.9906                11.5817
 Frc consts  --     0.0000                 0.0000                 0.0000
 IR Inten    --     9.1482                16.2451                 0.7168
 Raman Activ --     0.0000                 0.0000                 0.0000
 Depolar     --     0.0000                 0.0000                 0.0000
 Atom AN      X      Y      Z        X      Y      Z        X      Y      Z
   1   6    -0.18  -0.09  -0.16     0.08  -0.02   0.07     0.31   0.04   0.22
   2   6    -0.01  -0.04  -0.30    -0.13  -0.09   0.30     0.39   0.07  -0.08
   3   6    -0.04   0.02  -0.19     0.16  -0.15  -0.36     0.03  -0.17  -0.08
   4   6    -0.17   0.21   0.28    -0.02   0.12   0.08    -0.10  -0.00   0.21
   5   7     0.05  -0.13  -0.27    -0.14   0.18   0.12    -0.27  -0.25  -0.26
   6   6     0.04   0.07  -0.06    -0.12  -0.07   0.05    -0.36  -0.09   0.01
   7   7     0.04  -0.05  -0.06    -0.20  -0.24  -0.31     0.10   0.35   0.07
   8  16     0.28  -0.25   0.22     0.37   0.26  -0.02    -0.00   0.08  -0.06
   9   8    -0.11   0.35   0.35    -0.23  -0.11   0.12    -0.03  -0.06  -0.04
  10   1    -0.02  -0.03   0.01    -0.02  -0.01  -0.06     0.13   0.02   0.14
  11   1    -0.06  -0.04  -0.03     0.07   0.01   0.01     0.05  -0.01   0.08
  12   1    -0.10  -0.04  -0.06     0.08   0.01   0.03     0.02  -0.01   0.04
  13   1     0.01   0.00  -0.03     0.11  -0.07  -0.21    -0.00  -0.05  -0.15
  14   1    -0.10   0.10   0.21     0.02   0.08   0.03     0.01   0.05   0.05
  15   1     0.05   0.05  -0.02    -0.08  -0.06   0.02    -0.06   0.00   0.00
  16   1     0.01   0.04  -0.00    -0.01  -0.04   0.01    -0.10  -0.01   0.01
  17   1    -0.04   0.02   0.01     0.01  -0.03   0.00    -0.15  -0.02   0.02
                     13                     14                     15
                        a                      a                      a 
 Frequencies --   562.1334               639.5975               701.2422
 Red. masses --    18.0180                14.4133                13.2577
 Frc consts  --     0.0000                 0.0000                 0.0000
 IR Inten    --    30.7055                 7.9165                16.6827
 Raman Activ --     0.0000                 0.0000                 0.0000
 Depolar     --     0.0000                 0.0000                 0.0000
 Atom AN      X      Y      Z        X      Y      Z        X      Y      Z
   1   6    -0.04   0.00   0.01    -0.28  -0.08  -0.25    -0.09   0.04  -0.05
   2   6    -0.12  -0.01   0.16     0.03  -0.38  -0.22    -0.11   0.23   0.04
   3   6     0.12  -0.01  -0.31     0.24  -0.21   0.11     0.27   0.44  -0.11
   4   6     0.03   0.05   0.34     0.21  -0.06   0.01     0.30   0.03   0.15
   5   7     0.21  -0.28  -0.21    -0.10  -0.02  -0.06    -0.08  -0.11  -0.10
   6   6     0.22   0.05  -0.08    -0.14  -0.06   0.04    -0.26  -0.12   0.07
   7   7     0.08  -0.19   0.14    -0.06   0.11   0.20    -0.23  -0.15   0.36
   8  16    -0.44   0.32   0.09     0.10   0.45   0.06     0.15  -0.21  -0.17
   9   8     0.12  -0.11  -0.14     0.02  -0.06   0.01     0.01   0.03  -0.07
  10   1    -0.04  -0.01  -0.05    -0.05   0.05  -0.01    -0.04  -0.02  -0.04
  11   1     0.02   0.01  -0.00    -0.23   0.01  -0.15     0.04  -0.00   0.02
  12   1     0.02   0.01   0.00    -0.04   0.04  -0.00    -0.05  -0.02  -0.05
  13   1     0.06  -0.02  -0.16     0.08  -0.05   0.26     0.03   0.14  -0.01
  14   1    -0.03  -0.01   0.14     0.10   0.06   0.03     0.13  -0.08  -0.14
  15   1     0.12   0.06  -0.03    -0.05  -0.03   0.03    -0.08  -0.04   0.05
  16   1     0.03   0.03  -0.01     0.01  -0.02   0.01    -0.00  -0.02   0.02
  17   1     0.01   0.03  -0.00    -0.05  -0.03   0.02    -0.10  -0.05   0.05
                     16                     17                     18
                        a                      a                      a 
 Frequencies --   707.4115               774.6548               794.7553
 Red. masses --     6.3930                12.1312                 3.5594
 Frc consts  --     0.0000                 0.0000                 0.0000
 IR Inten    --    13.4835                47.6108                 1.3280
 Raman Activ --     0.0000                 0.0000                 0.0000
 Depolar     --     0.0000                 0.0000                 0.0000
 Atom AN      X      Y      Z        X      Y      Z        X      Y      Z
   1   6    -0.11  -0.02  -0.11     0.08  -0.01   0.02     0.01  -0.01  -0.01
   2   6     0.05  -0.05  -0.13     0.09  -0.06  -0.08     0.03  -0.05  -0.03
   3   6    -0.07   0.19   0.37    -0.20  -0.15   0.17     0.00  -0.13  -0.10
   4   6     0.17   0.01   0.07    -0.20   0.10  -0.02    -0.21   0.21   0.31
   5   7    -0.03  -0.05   0.04     0.02   0.09  -0.10     0.02   0.01   0.01
   6   6    -0.10  -0.04   0.02     0.26   0.10  -0.07     0.07   0.02  -0.01
   7   7     0.18  -0.10  -0.26    -0.45  -0.11   0.49     0.04   0.00  -0.07
   8  16    -0.09   0.07   0.12     0.20   0.06  -0.16    -0.00   0.02   0.02
   9   8    -0.00  -0.00   0.07    -0.00  -0.02  -0.09    -0.01   0.00   0.01
  10   1    -0.01   0.01  -0.00     0.08   0.02   0.10     0.02   0.01   0.03
  11   1    -0.08   0.00  -0.05    -0.05  -0.01   0.01    -0.03  -0.00  -0.01
  12   1    -0.02   0.01  -0.01    -0.03  -0.00   0.01    -0.01   0.00   0.00
  13   1     0.30  -0.08  -0.64     0.12  -0.11  -0.34    -0.03  -0.01   0.23
  14   1     0.12  -0.09  -0.20    -0.05  -0.02  -0.06     0.16  -0.36  -0.75
  15   1    -0.01   0.01  -0.01     0.02  -0.01   0.02     0.04   0.02  -0.01
  16   1    -0.07  -0.01   0.01     0.16   0.02  -0.02    -0.00   0.00  -0.00
  17   1    -0.03   0.00  -0.00     0.07  -0.01   0.01     0.02   0.01  -0.01
                     19                     20                     21
                        a                      a                      a 
 Frequencies --   952.1425               978.3931              1023.9719
 Red. masses --     8.6330                 7.1415                 4.8416
 Frc consts  --     0.0000                 0.0000                 0.0000
 IR Inten    --     5.4871                 8.2632                31.1821
 Raman Activ --     0.0000                 0.0000                 0.0000
 Depolar     --     0.0000                 0.0000                 0.0000
 Atom AN      X      Y      Z        X      Y      Z        X      Y      Z
   1   6     0.23  -0.22   0.19     0.00   0.24  -0.12     0.32  -0.01  -0.27
   2   6    -0.04  -0.21  -0.17    -0.02   0.02   0.09    -0.23  -0.11   0.17
   3   6    -0.08   0.30  -0.11    -0.00  -0.17   0.04     0.02   0.16  -0.05
   4   6    -0.15   0.26  -0.25    -0.11   0.32  -0.26     0.05  -0.10   0.04
   5   7     0.10   0.00  -0.02     0.13   0.01  -0.03    -0.00  -0.04   0.02
   6   6    -0.19  -0.08   0.04    -0.20  -0.10   0.06     0.04  -0.00   0.02
   7   7     0.16  -0.26   0.15     0.24  -0.25   0.16    -0.09   0.09  -0.11
   8  16    -0.04   0.07   0.03    -0.06   0.02  -0.01    -0.00   0.00   0.02
   9   8     0.03   0.00   0.02     0.01  -0.01  -0.01     0.00   0.00   0.02
  10   1     0.05   0.14   0.04     0.08  -0.11   0.11     0.40   0.11   0.49
  11   1    -0.18   0.06  -0.18     0.16  -0.07   0.21    -0.34  -0.08  -0.02
  12   1     0.31   0.15   0.27    -0.32  -0.13  -0.23    -0.31   0.01  -0.01
  13   1     0.09   0.07   0.09     0.34  -0.13   0.15    -0.02   0.05   0.01
  14   1    -0.16  -0.03  -0.02    -0.01   0.15  -0.04    -0.07  -0.10   0.05
  15   1    -0.02  -0.00   0.01    -0.01   0.01  -0.00     0.02   0.01  -0.02
  16   1    -0.08  -0.00   0.02    -0.12  -0.01   0.03    -0.04  -0.01   0.00
  17   1    -0.08  -0.01   0.02    -0.09   0.00   0.01     0.04   0.02  -0.02
                     22                     23                     24
                        a                      a                      a 
 Frequencies --  1062.9340              1085.1034              1090.4604
 Red. masses --     5.2303                 3.5190                 4.2415
 Frc consts  --     0.0000                 0.0000                 0.0000
 IR Inten    --     1.3151                16.7007                 1.6061
 Raman Activ --     0.0000                 0.0000                 0.0000
 Depolar     --     0.0000                 0.0000                 0.0000
 Atom AN      X      Y      Z        X      Y      Z        X      Y      Z
   1   6    -0.05  -0.04   0.01    -0.03  -0.13  -0.13     0.03   0.04   0.05
   2   6     0.03   0.06  -0.00     0.05   0.14   0.14    -0.03  -0.05  -0.07
   3   6     0.07   0.02   0.02    -0.08  -0.16   0.00     0.03   0.08  -0.02
   4   6    -0.04   0.08  -0.08     0.04   0.17  -0.04    -0.01  -0.05   0.00
   5   7     0.09  -0.14  -0.05    -0.02   0.08   0.02    -0.12   0.04   0.21
   6   6     0.16  -0.23   0.31     0.02  -0.13  -0.03     0.14  -0.28  -0.26
   7   7    -0.29   0.17  -0.04     0.13  -0.15   0.10    -0.12   0.09  -0.05
   8  16     0.04  -0.01   0.01    -0.02  -0.03  -0.00     0.02   0.01   0.01
   9   8    -0.02   0.00  -0.06     0.01   0.00  -0.01    -0.01  -0.00  -0.01
  10   1    -0.04   0.01  -0.05     0.04   0.06   0.06    -0.00  -0.02  -0.01
  11   1    -0.01   0.01  -0.03    -0.20   0.00  -0.12     0.06  -0.00   0.04
  12   1     0.06   0.02   0.03    -0.00   0.04   0.05     0.00  -0.01  -0.01
  13   1     0.11  -0.01   0.01    -0.50   0.07  -0.17     0.19  -0.02   0.06
  14   1     0.02   0.07  -0.01     0.38   0.46  -0.12    -0.04  -0.04   0.02
  15   1     0.27   0.15  -0.23     0.16   0.08  -0.02     0.49   0.25   0.03
  16   1    -0.59  -0.12   0.05    -0.05   0.04   0.04     0.08   0.20   0.10
  17   1     0.17   0.20  -0.20    -0.16   0.02   0.04    -0.53  -0.02   0.19
                     25                     26                     27
                        a                      a                      a 
 Frequencies --  1132.4821              1155.6451              1186.8236
 Red. masses --    18.9201                10.7752                 5.2716
 Frc consts  --     0.0000                 0.0000                 0.0000
 IR Inten    --   310.9319                32.2650                 3.5933
 Raman Activ --     0.0000                 0.0000                 0.0000
 Depolar     --     0.0000                 0.0000                 0.0000
 Atom AN      X      Y      Z        X      Y      Z        X      Y      Z
   1   6    -0.06  -0.11  -0.08     0.17   0.23   0.19    -0.08   0.08  -0.04
   2   6     0.07   0.20   0.12    -0.24  -0.44  -0.31     0.13  -0.21   0.08
   3   6     0.02  -0.07   0.01    -0.11   0.15  -0.04     0.15  -0.07   0.10
   4   6    -0.05  -0.00  -0.01     0.12  -0.03   0.04     0.05   0.18  -0.04
   5   7     0.06   0.01   0.00    -0.12   0.00  -0.02     0.31   0.19  -0.09
   6   6    -0.07   0.01  -0.03     0.08   0.02   0.05    -0.19  -0.15   0.03
   7   7     0.04   0.02  -0.01     0.02  -0.06   0.02    -0.06   0.02  -0.01
   8  16     0.17  -0.10   0.48     0.08   0.04   0.25     0.01   0.02   0.03
   9   8    -0.25   0.10  -0.70    -0.11   0.05  -0.29    -0.02   0.00  -0.05
  10   1    -0.01   0.04  -0.00     0.04  -0.09   0.03    -0.03  -0.06  -0.03
  11   1    -0.13   0.01  -0.09     0.27  -0.02   0.21     0.05  -0.01   0.05
  12   1     0.03   0.04   0.05    -0.05  -0.07  -0.08    -0.07  -0.05  -0.09
  13   1     0.14  -0.05   0.04    -0.23   0.09  -0.04    -0.49   0.10  -0.22
  14   1    -0.06  -0.04   0.02     0.19   0.15  -0.06    -0.36  -0.39   0.08
  15   1    -0.03  -0.01   0.04     0.01   0.00  -0.04     0.05   0.03   0.02
  16   1     0.06   0.02  -0.00    -0.06  -0.03  -0.01    -0.09   0.03   0.05
  17   1    -0.04  -0.03   0.03     0.08   0.03  -0.04    -0.13   0.00   0.03
                     28                     29                     30
                        a                      a                      a 
 Frequencies --  1295.0963              1381.7812              1388.4778
 Red. masses --    11.9848                10.0946                 3.1084
 Frc consts  --     0.0000                 0.0000                 0.0000
 IR Inten    --    36.6755                22.2046                11.3468
 Raman Activ --     0.0000                 0.0000                 0.0000
 Depolar     --     0.0000                 0.0000                 0.0000
 Atom AN      X      Y      Z        X      Y      Z        X      Y      Z
   1   6     0.08  -0.02   0.08    -0.10   0.06  -0.06    -0.33  -0.03  -0.26
   2   6    -0.23   0.07  -0.17     0.19  -0.21   0.12    -0.00   0.04   0.00
   3   6    -0.20  -0.14  -0.02     0.23   0.24   0.02    -0.03  -0.04  -0.00
   4   6     0.09  -0.10   0.13    -0.33   0.08  -0.16     0.06   0.02   0.01
   5   7     0.69   0.01   0.03     0.17  -0.43   0.26    -0.03   0.03  -0.02
   6   6    -0.33  -0.07  -0.00     0.09   0.16  -0.14     0.04  -0.00  -0.01
   7   7    -0.25   0.19  -0.11    -0.17   0.15  -0.09     0.02  -0.01   0.01
   8  16    -0.01   0.01  -0.02     0.01   0.01   0.01    -0.00  -0.00  -0.01
   9   8     0.01  -0.00   0.03    -0.01  -0.00  -0.01     0.00  -0.00   0.00
  10   1     0.02   0.04   0.03     0.00  -0.09   0.01     0.26  -0.03   0.45
  11   1     0.05   0.00   0.01     0.01  -0.01   0.03     0.39  -0.11   0.23
  12   1     0.05   0.03   0.05     0.03  -0.03  -0.06     0.49   0.21   0.18
  13   1     0.08  -0.08   0.01    -0.06   0.10  -0.07    -0.00  -0.01   0.01
  14   1     0.21   0.14  -0.03     0.07   0.21  -0.09    -0.02  -0.04   0.01
  15   1    -0.04  -0.01   0.07    -0.16  -0.13   0.18    -0.03  -0.03   0.02
  16   1     0.09   0.03   0.02    -0.09  -0.03  -0.05    -0.06   0.01   0.01
  17   1    -0.05  -0.06   0.04    -0.07  -0.16   0.17    -0.04   0.00   0.02
                     31                     32                     33
                        a                      a                      a 
 Frequencies --  1393.2435              1448.0674              1455.7213
 Red. masses --     3.7137                 1.6395                 4.7871
 Frc consts  --     0.0000                 0.0000                 0.0000
 IR Inten    --     2.7124                 8.3232                 0.6028
 Raman Activ --     0.0000                 0.0000                 0.0000
 Depolar     --     0.0000                 0.0000                 0.0000
 Atom AN      X      Y      Z        X      Y      Z        X      Y      Z
   1   6     0.08  -0.03   0.06    -0.01   0.01  -0.00     0.03  -0.16   0.02
   2   6    -0.11   0.10  -0.08     0.03  -0.01   0.02    -0.20   0.12  -0.13
   3   6    -0.11  -0.13  -0.00    -0.02   0.03  -0.01     0.15  -0.17   0.10
   4   6     0.19   0.01   0.06    -0.01  -0.03   0.01     0.10   0.24  -0.09
   5   7    -0.00   0.11  -0.07    -0.05   0.01  -0.04    -0.10  -0.22   0.12
   6   6     0.32   0.06  -0.11    -0.08  -0.11  -0.17    -0.04   0.10  -0.06
   7   7     0.01  -0.02   0.01     0.02  -0.02   0.01    -0.01   0.03  -0.02
   8  16     0.00  -0.01  -0.00    -0.00   0.00  -0.00     0.00  -0.00   0.01
   9   8     0.00   0.00   0.01     0.00  -0.00   0.00    -0.00   0.00  -0.00
  10   1    -0.02   0.06  -0.05     0.00  -0.03   0.00    -0.02   0.50  -0.00
  11   1    -0.03   0.02  -0.04    -0.02   0.00  -0.00     0.34   0.06  -0.04
  12   1    -0.06  -0.00   0.02     0.02  -0.01  -0.02    -0.26   0.08   0.14
  13   1     0.01  -0.05   0.03     0.01   0.00   0.01    -0.08  -0.02  -0.05
  14   1    -0.02  -0.09   0.03     0.02   0.02  -0.00    -0.09  -0.06   0.01
  15   1    -0.32  -0.29   0.24     0.14   0.01   0.61     0.16   0.11   0.12
  16   1    -0.57   0.03   0.02    -0.15   0.47   0.28     0.00  -0.13  -0.09
  17   1    -0.33  -0.06   0.23     0.41  -0.02  -0.22     0.18  -0.25   0.10
                     34                     35                     36
                        a                      a                      a 
 Frequencies --  1465.4037              1468.5053              1484.8442
 Red. masses --     2.1017                 2.1599                 8.6495
 Frc consts  --     0.0000                 0.0000                 0.0000
 IR Inten    --     9.3234                 9.5109                17.5673
 Raman Activ --     0.0000                 0.0000                 0.0000
 Depolar     --     0.0000                 0.0000                 0.0000
 Atom AN      X      Y      Z        X      Y      Z        X      Y      Z
   1   6     0.12   0.10  -0.10    -0.08   0.06   0.13     0.05   0.06   0.08
   2   6    -0.01   0.05  -0.05     0.02   0.01   0.04    -0.17   0.14  -0.12
   3   6    -0.08  -0.06  -0.02    -0.17  -0.02  -0.05    -0.05  -0.20   0.03
   4   6     0.14   0.11  -0.01     0.16   0.06   0.01     0.31   0.41  -0.12
   5   7    -0.04  -0.04   0.03    -0.04   0.02  -0.01    -0.10  -0.41   0.24
   6   6    -0.05   0.09  -0.03    -0.06   0.10  -0.03     0.07  -0.03  -0.01
   7   7    -0.01   0.00  -0.00    -0.00  -0.01   0.00    -0.08   0.07  -0.06
   8  16     0.00  -0.00  -0.00     0.00  -0.00  -0.00     0.01  -0.01   0.01
   9   8     0.00   0.00   0.00    -0.00   0.00   0.00    -0.01   0.00  -0.00
  10   1    -0.09  -0.35  -0.20     0.11  -0.18   0.20     0.04  -0.21   0.04
  11   1    -0.34  -0.28   0.41    -0.05   0.22  -0.35    -0.15   0.02  -0.05
  12   1     0.04   0.24   0.26     0.26  -0.30  -0.37     0.17  -0.07  -0.09
  13   1    -0.01  -0.02   0.01     0.02  -0.02   0.04    -0.07  -0.04  -0.01
  14   1    -0.03  -0.05   0.02    -0.01  -0.05   0.02    -0.09  -0.09   0.02
  15   1     0.18   0.12   0.10     0.20   0.14   0.10    -0.14  -0.10  -0.08
  16   1    -0.08  -0.20  -0.12    -0.11  -0.25  -0.15     0.20   0.19   0.11
  17   1     0.14  -0.28   0.15     0.15  -0.33   0.19    -0.05   0.23  -0.17
                     37                     38                     39
                        a                      a                      a 
 Frequencies --  1502.3217              2967.3266              2982.7931
 Red. masses --    10.7604                 1.8026                 1.7800
 Frc consts  --     0.0000                 0.0000                 0.0000
 IR Inten    --    32.0766                17.6799                17.1268
 Raman Activ --     0.0000                 0.0000                 0.0000
 Depolar     --     0.0000                 0.0000                 0.0000
 Atom AN      X      Y      Z        X      Y      Z        X      Y      Z
   1   6    -0.09  -0.06  -0.10    -0.00   0.00   0.00    -0.21  -0.02   0.16
   2   6     0.43  -0.22   0.24    -0.00  -0.00   0.00    -0.01  -0.00  -0.00
   3   6    -0.57   0.15  -0.23    -0.00   0.00  -0.00     0.00  -0.00   0.00
   4   6     0.35   0.16   0.01     0.00   0.00  -0.00    -0.00  -0.00   0.00
   5   7     0.01  -0.10   0.08    -0.01  -0.01   0.00    -0.00   0.00  -0.00
   6   6    -0.00  -0.01   0.01    -0.07  -0.15  -0.21     0.00   0.00   0.00
   7   7    -0.11   0.03  -0.03     0.00  -0.00  -0.00     0.00   0.00  -0.00
   8  16     0.01   0.01   0.00    -0.00  -0.00  -0.00    -0.00  -0.00   0.00
   9   8    -0.01  -0.01  -0.01     0.00  -0.00   0.00     0.00   0.00  -0.00
  10   1    -0.05   0.19  -0.07     0.01   0.00  -0.01     0.82   0.02  -0.50
  11   1     0.12  -0.01   0.02     0.00  -0.00  -0.00    -0.02  -0.04   0.00
  12   1    -0.19   0.04   0.05    -0.00   0.00  -0.00    -0.04   0.10  -0.06
  13   1     0.05  -0.00   0.11    -0.00  -0.00  -0.00    -0.00  -0.00   0.00
  14   1     0.03  -0.04   0.03    -0.00   0.00  -0.00    -0.00   0.00  -0.00
  15   1    -0.02  -0.01  -0.02    -0.07   0.07  -0.02     0.00   0.00   0.00
  16   1     0.04   0.01   0.01    -0.00  -0.08   0.07     0.00   0.00  -0.00
  17   1    -0.00   0.02  -0.02     0.35   0.55   0.69    -0.01  -0.01  -0.01
                     40                     41                     42
                        a                      a                      a 
 Frequencies --  3012.0435              3024.0839              3026.9002
 Red. masses --     1.5235                 1.7739                 1.8018
 Frc consts  --     0.0000                 0.0000                 0.0000
 IR Inten    --    21.1673                22.0338                 3.4130
 Raman Activ --     0.0000                 0.0000                 0.0000
 Depolar     --     0.0000                 0.0000                 0.0000
 Atom AN      X      Y      Z        X      Y      Z        X      Y      Z
   1   6     0.00   0.00   0.00     0.03  -0.24  -0.10     0.00  -0.01   0.00
   2   6    -0.00   0.00   0.00    -0.00  -0.01  -0.00     0.00  -0.00   0.00
   3   6     0.00  -0.00   0.00     0.00   0.01   0.00    -0.00   0.00   0.00
   4   6    -0.00   0.00  -0.00     0.00  -0.00  -0.00     0.00  -0.00   0.00
   5   7     0.01  -0.00  -0.00     0.00  -0.00   0.00     0.00   0.01  -0.01
   6   6     0.15  -0.15  -0.05     0.00  -0.01   0.00    -0.04   0.19  -0.19
   7   7    -0.00   0.00  -0.00    -0.00   0.00   0.00     0.00  -0.00   0.00
   8  16     0.00  -0.00   0.00     0.00   0.00   0.00    -0.00   0.00  -0.00
   9   8    -0.00   0.00  -0.00    -0.00  -0.00  -0.00     0.00  -0.00   0.00
  10   1    -0.00   0.00   0.00     0.02  -0.03  -0.02    -0.00  -0.00   0.00
  11   1     0.00  -0.01  -0.01    -0.11   0.81   0.49    -0.00   0.01   0.01
  12   1    -0.00   0.00  -0.00    -0.00   0.08  -0.11    -0.00   0.03  -0.03
  13   1     0.00   0.00  -0.00    -0.01  -0.01   0.00    -0.00  -0.00   0.00
  14   1     0.01  -0.01   0.01    -0.00   0.00  -0.00    -0.01   0.01  -0.00
  15   1    -0.53   0.76   0.10    -0.01   0.02   0.00     0.13  -0.18  -0.05
  16   1     0.02  -0.14   0.19    -0.00   0.01  -0.01     0.03  -0.48   0.80
  17   1    -0.03  -0.10  -0.10     0.00   0.00   0.00    -0.04  -0.02  -0.09
                     43                     44                     45
                        a                      a                      a 
 Frequencies --  3032.1886              3119.0718              3138.8263
 Red. masses --     1.5800                 1.8123                 1.8803
 Frc consts  --     0.0000                 0.0000                 0.0000
 IR Inten    --     7.1545                10.8336                14.4948
 Raman Activ --     0.0000                 0.0000                 0.0000
 Depolar     --     0.0000                 0.0000                 0.0000
 Atom AN      X      Y      Z        X      Y      Z        X      Y      Z
   1   6     0.03  -0.16   0.16    -0.00  -0.00  -0.00     0.00  -0.00   0.00
   2   6     0.01  -0.00   0.01    -0.01  -0.00  -0.00    -0.00   0.00  -0.00
   3   6    -0.00   0.00  -0.00    -0.07  -0.25   0.02    -0.03  -0.08   0.00
   4   6    -0.00   0.00  -0.00    -0.05   0.03  -0.03     0.20  -0.14   0.12
   5   7     0.00  -0.00   0.00    -0.00   0.00  -0.00     0.01  -0.00   0.00
   6   6     0.00  -0.01   0.01    -0.00   0.00  -0.00     0.00  -0.00   0.00
   7   7    -0.00   0.00  -0.00     0.00   0.00   0.00    -0.00   0.00  -0.00
   8  16     0.00   0.00   0.00    -0.00   0.00   0.00    -0.00   0.00   0.00
   9   8    -0.00   0.00  -0.00    -0.00   0.00  -0.00    -0.00   0.00  -0.00
  10   1    -0.11  -0.03   0.09     0.00  -0.00  -0.00     0.00  -0.00   0.00
  11   1     0.02  -0.14  -0.05    -0.00   0.01   0.01    -0.00   0.00   0.00
  12   1    -0.04   0.73  -0.61    -0.00   0.00  -0.00    -0.00   0.00  -0.00
  13   1    -0.00  -0.00  -0.00     0.23   0.90  -0.05     0.06   0.24  -0.01
  14   1     0.00  -0.00   0.00     0.18  -0.14   0.12    -0.67   0.49  -0.42
  15   1    -0.00   0.00   0.00     0.00  -0.00  -0.00    -0.01   0.01   0.00
  16   1    -0.00   0.02  -0.03    -0.00  -0.00   0.00    -0.00   0.00  -0.01
  17   1     0.00   0.00   0.00     0.00   0.00   0.00    -0.00  -0.00  -0.00
