17
 xtb: 6.7.1 (edcfbbe)
C           -2.52204674011012       -0.27749540915162       -1.06416969417977
C           -1.42559072430988       -0.10390593644014       -0.08973114712689
C           -0.48912273932980       -0.99699377581861        0.32139131870192
C            0.79916034306871       -0.52535540850698        0.63212991655974
N            1.12606361934545        0.60665968731270        0.01394205686535
C            2.48544177508445        0.97608621875436       -0.29676525901381
N            0.23611125058325        1.46357227342576       -0.43169163154268
S           -1.11926146612077        1.53922271317715        0.56062830377559
O           -0.68680293113625        1.37638881309507        1.96170559516328
H           -3.43505029923804       -0.27427828862389       -0.54034416406478
H           -2.37838229626425       -1.18413500088378       -1.63893189911364
H           -2.52188358549664        0.57463830765228       -1.78313574640240
H           -0.71086817876294       -2.05051258972352        0.35741465649267
H            1.58021849373813       -1.12255569433892        1.10535721743433
H            3.10531232402515        0.10775627092820       -0.42423540460482
H            2.44073248171610        1.55830940569105       -1.22861823113598
H            2.88276486443765        1.62320296900007        0.48627891629211
