 Entering Gaussian System
 *********************************************
 Gaussian 98:
 frequency output generated by the xtb code
 *********************************************
                         Standard orientation:
 --------------------------------------------------------------------
  Center     Atomic     Atomic              Coordinates (Angstroms)
  Number     Number      Type              X           Y           Z
 --------------------------------------------------------------------
    1          6             0        1.578043   -1.099636    0.488738
    2          6             0        0.749614   -0.381028   -0.518062
    3          6             0        1.094296    0.708628   -1.314025
    4          6             0        0.032785    1.574193   -1.540018
    5          7             0       -1.031197    1.391788   -0.778775
    6          7             0       -0.974611    0.246725   -0.137032
    7          6             0       -1.683724    0.101838    1.106879
    8         16             0       -0.739230   -1.288334   -1.115958
    9          8             0       -0.962811   -0.970539   -2.510753
   10          1             0        2.233138   -1.821287   -0.001138
   11          1             0        0.936728   -1.648207    1.176943
   12          1             0        2.192656   -0.405463    1.060048
   13          1             0        2.105722    0.958264   -1.572857
   14          1             0        0.062482    2.450028   -2.160597
   15          1             0       -2.761032    0.157694    0.937395
   16          1             0       -1.441118   -0.868245    1.537648
   17          1             0       -1.391754    0.893574    1.797747
 --------------------------------------------------------------------
     1 basis functions        1 primitive gaussians
     1 alpha electrons        1 beta electrons

 Harmonic frequencies (cm**-1), IR intensities (km*mol⁻¹),
 Raman scattering activities (A**4/amu), Raman depolarization ratios,
 reduced masses (AMU), force constants (mDyne/A) and normal coordinates:
                      1                      2                      3
                        a                      a                      a 
 Frequencies --  -433.0037                60.4515                68.8091
 Red. masses --    13.8973                 1.5020                 1.2253
 Frc consts  --     0.0000                 0.0000                 0.0000
 IR Inten    --    21.6536                 0.5300                 0.1589
 Raman Activ --     0.0000                 0.0000                 0.0000
 Depolar     --     0.0000                 0.0000                 0.0000
 Atom AN      X      Y      Z        X      Y      Z        X      Y      Z
   1   6    -0.17   0.11   0.07    -0.01   0.04   0.02    -0.02   0.03   0.05
   2   6    -0.40   0.29   0.33    -0.02   0.01   0.01     0.01  -0.03  -0.03
   3   6    -0.04   0.06  -0.02    -0.03   0.03   0.02     0.01  -0.02  -0.02
   4   6     0.06   0.08   0.02    -0.04   0.01   0.01     0.00  -0.02  -0.02
   5   7    -0.02  -0.06  -0.02    -0.06  -0.01  -0.01     0.01  -0.01  -0.02
   6   7     0.55   0.01   0.10    -0.05  -0.02  -0.03    -0.02  -0.01  -0.02
   7   6     0.20  -0.04  -0.03     0.07   0.02   0.04     0.06   0.04   0.04
   8  16    -0.13  -0.27  -0.16     0.03  -0.02  -0.03    -0.00   0.01  -0.00
   9   8    -0.01   0.02  -0.09     0.08  -0.05  -0.04    -0.05  -0.00   0.01
  10   1    -0.07   0.08  -0.07    -0.14  -0.13   0.03     0.39   0.39  -0.02
  11   1     0.00  -0.02   0.03    -0.01   0.17   0.13     0.01  -0.41  -0.31
  12   1    -0.02   0.01   0.02     0.13  -0.00  -0.12    -0.40   0.07   0.36
  13   1    -0.02  -0.16  -0.17    -0.01   0.01   0.01     0.00  -0.00   0.00
  14   1    -0.01   0.00  -0.02    -0.01   0.00   0.00     0.00  -0.01  -0.01
  15   1     0.08   0.01  -0.11     0.03   0.54   0.10     0.02   0.21   0.05
  16   1     0.01  -0.02   0.01    -0.39  -0.21  -0.25    -0.12  -0.06  -0.08
  17   1     0.01  -0.01   0.01     0.42  -0.29   0.19     0.17  -0.09   0.07
                      4                      5                      6
                        a                      a                      a 
 Frequencies --   147.4858               179.6584               202.8804
 Red. masses --    12.9829                10.2108                11.1315
 Frc consts  --     0.0000                 0.0000                 0.0000
 IR Inten    --     2.1087                 0.2874                 1.7544
 Raman Activ --     0.0000                 0.0000                 0.0000
 Depolar     --     0.0000                 0.0000                 0.0000
 Atom AN      X      Y      Z        X      Y      Z        X      Y      Z
   1   6    -0.11   0.06   0.26    -0.29   0.04   0.15     0.11  -0.32  -0.28
   2   6     0.06  -0.07   0.04    -0.06  -0.05  -0.11    -0.15   0.06   0.19
   3   6    -0.02  -0.13  -0.05    -0.03   0.05   0.05    -0.14   0.00   0.11
   4   6    -0.15  -0.31  -0.23     0.02   0.13   0.10    -0.14  -0.06  -0.06
   5   7    -0.10  -0.22  -0.15    -0.03   0.14   0.04    -0.19  -0.02  -0.08
   6   7    -0.03  -0.11   0.05    -0.21   0.02  -0.17    -0.12   0.07   0.06
   7   6     0.20  -0.00   0.17     0.47  -0.02   0.20     0.02   0.29   0.15
   8  16     0.06   0.07  -0.13    -0.06   0.02  -0.13    -0.03  -0.00   0.04
   9   8     0.06   0.63   0.04     0.15  -0.34  -0.19     0.55   0.01  -0.06
  10   1    -0.03  -0.03   0.15    -0.07  -0.03   0.12    -0.01  -0.02  -0.24
  11   1    -0.07   0.07   0.09    -0.14   0.05   0.03     0.09  -0.19  -0.10
  12   1    -0.04   0.04   0.05    -0.11   0.02   0.05     0.08  -0.17  -0.04
  13   1    -0.02  -0.00  -0.02    -0.00   0.03   0.05    -0.04  -0.02   0.01
  14   1    -0.07  -0.13  -0.12     0.03   0.06   0.06    -0.05  -0.04  -0.05
  15   1     0.05  -0.03   0.11     0.10  -0.12   0.24     0.00   0.07   0.08
  16   1     0.10   0.02   0.07     0.30   0.04   0.06     0.03   0.11   0.10
  17   1     0.08   0.03   0.01     0.18   0.05  -0.02     0.03   0.13  -0.02
                      7                      8                      9
                        a                      a                      a 
 Frequencies --   211.9989               270.0121               305.0924
 Red. masses --    14.0474                13.0095                12.1879
 Frc consts  --     0.0000                 0.0000                 0.0000
 IR Inten    --     6.3559                 0.1723                 1.4318
 Raman Activ --     0.0000                 0.0000                 0.0000
 Depolar     --     0.0000                 0.0000                 0.0000
 Atom AN      X      Y      Z        X      Y      Z        X      Y      Z
   1   6     0.16   0.24   0.06     0.32   0.28   0.02     0.25   0.03  -0.03
   2   6    -0.08  -0.16  -0.02    -0.08  -0.16   0.01    -0.12   0.03   0.24
   3   6    -0.14  -0.30  -0.27     0.02  -0.07   0.18     0.09   0.00   0.31
   4   6    -0.00  -0.08  -0.03     0.12   0.04   0.24     0.15  -0.04  -0.09
   5   7     0.14   0.19   0.26     0.01  -0.11   0.02    -0.07   0.02  -0.37
   6   7    -0.01   0.11   0.08    -0.13  -0.16  -0.05    -0.14   0.10  -0.22
   7   6    -0.08  -0.21   0.00    -0.02   0.33   0.08     0.18  -0.32  -0.11
   8  16    -0.33   0.13   0.03    -0.16  -0.29  -0.27    -0.25   0.15   0.15
   9   8     0.45  -0.00  -0.11    -0.10   0.10  -0.13    -0.11   0.05   0.08
  10   1     0.10   0.09   0.05     0.13   0.11   0.02     0.06   0.06  -0.11
  11   1     0.11   0.06   0.07     0.20   0.08   0.10     0.18  -0.05   0.04
  12   1     0.00   0.16  -0.04     0.06   0.20  -0.10     0.10   0.03  -0.06
  13   1    -0.05  -0.15  -0.16     0.02  -0.03   0.11     0.05  -0.02   0.16
  14   1     0.02  -0.03  -0.01     0.07   0.05   0.12     0.08  -0.04  -0.06
  15   1    -0.02  -0.08  -0.02    -0.01   0.11   0.05     0.03  -0.14   0.07
  16   1    -0.01  -0.08  -0.06    -0.02   0.14   0.13     0.14  -0.13  -0.15
  17   1    -0.06  -0.10   0.06     0.04   0.17  -0.09     0.07  -0.15   0.03
                     10                     11                     12
                        a                      a                      a 
 Frequencies --   402.1267               447.4207               524.2364
 Red. masses --    17.1648                17.5506                12.3978
 Frc consts  --     0.0000                 0.0000                 0.0000
 IR Inten    --     6.0654                10.4682                 1.7533
 Raman Activ --     0.0000                 0.0000                 0.0000
 Depolar     --     0.0000                 0.0000                 0.0000
 Atom AN      X      Y      Z        X      Y      Z        X      Y      Z
   1   6     0.16  -0.03   0.13    -0.07   0.07  -0.08     0.19  -0.19   0.24
   2   6     0.13   0.05   0.18     0.15  -0.11  -0.33     0.12  -0.12   0.15
   3   6     0.08   0.05   0.21     0.15   0.23   0.12    -0.26  -0.04  -0.02
   4   6    -0.12  -0.27  -0.17    -0.01   0.03   0.06    -0.18   0.08   0.14
   5   7     0.02  -0.01   0.11    -0.10  -0.33  -0.19    -0.17  -0.02   0.15
   6   7     0.12   0.07   0.26     0.35  -0.18   0.13     0.16  -0.23  -0.31
   7   6    -0.07   0.03   0.16     0.03   0.00  -0.02     0.20   0.10  -0.38
   8  16    -0.04   0.35  -0.32    -0.47   0.17   0.17    -0.02   0.29   0.07
   9   8    -0.21  -0.37  -0.35     0.26  -0.05  -0.01    -0.06  -0.03   0.00
  10   1     0.04  -0.00   0.02     0.01  -0.01   0.07     0.05  -0.06   0.07
  11   1     0.06  -0.01   0.05    -0.07   0.06  -0.04     0.05  -0.05   0.06
  12   1     0.05  -0.01   0.03    -0.06   0.05  -0.02     0.06  -0.06   0.07
  13   1     0.01   0.06   0.05     0.05   0.14   0.13    -0.11  -0.06  -0.19
  14   1    -0.08  -0.14  -0.14    -0.04   0.04   0.06    -0.03   0.03   0.05
  15   1    -0.01   0.01   0.00     0.02   0.03  -0.09     0.06   0.08  -0.13
  16   1    -0.03   0.01   0.05    -0.05   0.01   0.05     0.00   0.06  -0.01
  17   1    -0.04   0.01   0.06    -0.02   0.02  -0.02     0.09   0.09  -0.20
                     13                     14                     15
                        a                      a                      a 
 Frequencies --   549.3331               586.2893               640.5562
 Red. masses --    18.3363                11.8779                12.8163
 Frc consts  --     0.0000                 0.0000                 0.0000
 IR Inten    --    22.5142                17.0195                 5.5587
 Raman Activ --     0.0000                 0.0000                 0.0000
 Depolar     --     0.0000                 0.0000                 0.0000
 Atom AN      X      Y      Z        X      Y      Z        X      Y      Z
   1   6     0.15  -0.14   0.16    -0.17   0.15  -0.21    -0.08  -0.01  -0.08
   2   6     0.30  -0.08  -0.08    -0.22   0.04  -0.05    -0.25  -0.43  -0.19
   3   6    -0.05   0.25   0.23     0.07   0.13   0.29    -0.28  -0.18   0.23
   4   6    -0.18   0.06  -0.22    -0.12  -0.28  -0.26    -0.09   0.00  -0.00
   5   7     0.01   0.30   0.11     0.31   0.08   0.44    -0.17   0.14  -0.09
   6   7     0.08   0.27  -0.01    -0.03  -0.26  -0.21     0.29   0.26   0.15
   7   6     0.06   0.02  -0.11     0.08   0.02  -0.20     0.08   0.04  -0.08
   8  16    -0.25  -0.52  -0.06     0.02   0.02   0.10     0.32   0.07  -0.01
   9   8     0.04   0.12   0.02     0.05   0.03   0.09    -0.04  -0.01   0.04
  10   1     0.06  -0.07   0.12    -0.04   0.07  -0.09     0.05   0.02   0.05
  11   1    -0.03  -0.01   0.01     0.01   0.02  -0.02     0.05   0.01   0.06
  12   1     0.01  -0.05   0.08    -0.05   0.07  -0.09    -0.09   0.14  -0.13
  13   1    -0.05   0.11  -0.04     0.03   0.03   0.14    -0.04   0.01   0.29
  14   1    -0.05  -0.03  -0.13    -0.07  -0.10  -0.10     0.08  -0.00   0.00
  15   1     0.01  -0.02  -0.03     0.02   0.05  -0.05     0.03  -0.01  -0.11
  16   1     0.04  -0.01  -0.09    -0.02   0.03   0.03     0.01  -0.01  -0.06
  17   1    -0.02  -0.04   0.03     0.07   0.06  -0.14    -0.06  -0.02   0.05
                     16                     17                     18
                        a                      a                      a 
 Frequencies --   689.8752               811.7623               855.1191
 Red. masses --     4.8970                11.0131                 3.7176
 Frc consts  --     0.0000                 0.0000                 0.0000
 IR Inten    --     8.3026                 6.6650                 3.9831
 Raman Activ --     0.0000                 0.0000                 0.0000
 Depolar     --     0.0000                 0.0000                 0.0000
 Atom AN      X      Y      Z        X      Y      Z        X      Y      Z
   1   6    -0.05   0.03  -0.09     0.09  -0.14   0.13    -0.02   0.05  -0.02
   2   6    -0.02  -0.18  -0.17    -0.14  -0.11   0.02     0.05   0.06   0.03
   3   6     0.09   0.22   0.36    -0.31   0.17   0.06     0.08   0.00   0.06
   4   6     0.09  -0.05   0.05     0.02   0.37  -0.48    -0.16  -0.38  -0.17
   5   7    -0.09  -0.02  -0.07     0.37  -0.14  -0.09    -0.08   0.05   0.00
   6   7    -0.08   0.03   0.00     0.01  -0.20  -0.01     0.02   0.09   0.04
   7   6    -0.05  -0.00   0.08    -0.13  -0.07   0.23     0.03   0.03  -0.05
   8  16     0.11   0.07   0.02     0.03   0.08   0.01    -0.00  -0.01  -0.01
   9   8    -0.01  -0.01   0.01    -0.00  -0.01  -0.00    -0.01  -0.00  -0.01
  10   1     0.03   0.00   0.04     0.05  -0.03   0.06    -0.03   0.01  -0.04
  11   1     0.00   0.02   0.01     0.05  -0.03   0.07    -0.02   0.00  -0.03
  12   1    -0.05   0.08  -0.07     0.00   0.00   0.01     0.02  -0.03   0.02
  13   1    -0.06  -0.43  -0.68    -0.04  -0.11   0.03    -0.03   0.03  -0.14
  14   1     0.00  -0.08  -0.08     0.03   0.28   0.12     0.35   0.39   0.67
  15   1    -0.01  -0.01   0.02    -0.03  -0.01   0.07     0.00  -0.01  -0.00
  16   1    -0.01  -0.00   0.01    -0.04  -0.01   0.09     0.03  -0.00  -0.05
  17   1    -0.02  -0.00   0.03    -0.01  -0.00   0.03    -0.00  -0.01   0.02
                     19                     20                     21
                        a                      a                      a 
 Frequencies --   963.5432               969.4485              1018.3504
 Red. masses --     7.5748                 7.9627                 4.8240
 Frc consts  --     0.0000                 0.0000                 0.0000
 IR Inten    --    26.9023                62.9919                11.8496
 Raman Activ --     0.0000                 0.0000                 0.0000
 Depolar     --     0.0000                 0.0000                 0.0000
 Atom AN      X      Y      Z        X      Y      Z        X      Y      Z
   1   6    -0.09  -0.24   0.28     0.06   0.17  -0.09     0.20  -0.29  -0.22
   2   6    -0.18  -0.07  -0.16     0.13   0.01   0.02    -0.22   0.19   0.12
   3   6     0.33   0.18  -0.21    -0.10  -0.12   0.09     0.16   0.06  -0.10
   4   6    -0.03  -0.05  -0.03     0.05  -0.00  -0.05    -0.01  -0.07  -0.02
   5   7    -0.19   0.27  -0.01    -0.20   0.43  -0.10    -0.11   0.08   0.02
   6   7     0.05  -0.10  -0.11     0.17  -0.25  -0.14    -0.03  -0.01  -0.05
   7   6    -0.04  -0.10   0.16    -0.07  -0.23   0.26     0.03  -0.04   0.03
   8  16     0.02  -0.00   0.00    -0.02  -0.00  -0.02     0.00   0.01   0.01
   9   8     0.02   0.00   0.06     0.00   0.00   0.04     0.01   0.00   0.02
  10   1     0.04   0.13  -0.14    -0.07  -0.04  -0.02     0.31  -0.22   0.52
  11   1     0.35  -0.20   0.31    -0.18   0.08  -0.18    -0.14   0.22   0.01
  12   1     0.03   0.10  -0.18     0.05  -0.12   0.13    -0.27   0.23  -0.06
  13   1     0.06   0.18  -0.05    -0.01  -0.07   0.07     0.09  -0.07   0.06
  14   1    -0.00   0.01   0.01     0.32  -0.07  -0.10    -0.04   0.03   0.06
  15   1     0.01   0.05  -0.06     0.01   0.10  -0.03     0.02   0.02  -0.06
  16   1    -0.11   0.01   0.17    -0.21   0.02   0.34    -0.06  -0.00   0.07
  17   1    -0.02   0.04  -0.04     0.02   0.09  -0.12    -0.02   0.02  -0.02
                     22                     23                     24
                        a                      a                      a 
 Frequencies --  1064.5668              1089.3850              1122.5299
 Red. masses --     3.9162                 4.1210                 7.3094
 Frc consts  --     0.0000                 0.0000                 0.0000
 IR Inten    --    19.9913                12.2366                54.4623
 Raman Activ --     0.0000                 0.0000                 0.0000
 Depolar     --     0.0000                 0.0000                 0.0000
 Atom AN      X      Y      Z        X      Y      Z        X      Y      Z
   1   6     0.19   0.10   0.16     0.05   0.04   0.02    -0.30  -0.05  -0.13
   2   6    -0.17  -0.07  -0.19    -0.07  -0.02  -0.01     0.49   0.11   0.19
   3   6     0.22   0.05  -0.07    -0.06   0.02   0.02    -0.03  -0.14   0.05
   4   6    -0.09   0.01  -0.07     0.06  -0.03   0.02    -0.09   0.14  -0.08
   5   7    -0.15   0.05   0.07     0.07  -0.07  -0.00    -0.04   0.01  -0.01
   6   7    -0.06   0.04   0.03    -0.22  -0.03  -0.14    -0.10   0.01   0.04
   7   6     0.08   0.01  -0.02     0.33   0.10   0.22     0.15  -0.06   0.00
   8  16     0.02   0.01  -0.03    -0.01   0.02  -0.02    -0.02  -0.05   0.09
   9   8    -0.00  -0.01   0.03     0.01  -0.01   0.02    -0.03   0.03  -0.17
  10   1    -0.10  -0.04  -0.06    -0.02  -0.02  -0.01     0.04   0.12  -0.08
  11   1    -0.08  -0.02  -0.11    -0.04   0.01  -0.04     0.15  -0.04   0.14
  12   1     0.16  -0.22   0.22     0.04  -0.06   0.06    -0.12   0.22  -0.26
  13   1     0.28  -0.54   0.27    -0.09   0.19  -0.08     0.11  -0.37   0.15
  14   1    -0.32   0.11   0.11     0.05  -0.03  -0.02    -0.10   0.10   0.05
  15   1     0.03   0.01  -0.10     0.17  -0.01  -0.57     0.07   0.05  -0.19
  16   1    -0.03  -0.01  -0.00    -0.21  -0.08  -0.02    -0.12  -0.01   0.10
  17   1    -0.05   0.00   0.02    -0.39  -0.04   0.32    -0.07   0.04  -0.01
                     25                     26                     27
                        a                      a                      a 
 Frequencies --  1143.7584              1175.7358              1184.0476
 Red. masses --     6.7160                17.3646                 9.3011
 Frc consts  --     0.0000                 0.0000                 0.0000
 IR Inten    --    52.4960               247.7171                55.4637
 Raman Activ --     0.0000                 0.0000                 0.0000
 Depolar     --     0.0000                 0.0000                 0.0000
 Atom AN      X      Y      Z        X      Y      Z        X      Y      Z
   1   6    -0.05  -0.04  -0.01     0.07  -0.03   0.08     0.01  -0.06   0.07
   2   6     0.11   0.08   0.00    -0.11   0.06  -0.14    -0.03   0.10  -0.10
   3   6     0.01   0.03  -0.04    -0.02   0.11  -0.07    -0.06   0.16  -0.09
   4   6    -0.08   0.02  -0.01     0.00  -0.02   0.00     0.05   0.07  -0.09
   5   7    -0.14   0.07   0.10    -0.06  -0.07   0.09    -0.07  -0.15   0.11
   6   7     0.17  -0.31  -0.20    -0.01  -0.02  -0.00    -0.26   0.02   0.41
   7   6    -0.13   0.33   0.13    -0.00   0.04  -0.01     0.17  -0.07  -0.26
   8  16    -0.04   0.04  -0.12     0.08  -0.10   0.49    -0.04   0.04  -0.21
   9   8     0.04  -0.04   0.18    -0.10   0.16  -0.67     0.05  -0.07   0.27
  10   1     0.03   0.02   0.00     0.01  -0.02   0.02     0.02   0.01   0.01
  11   1     0.04  -0.01   0.05     0.01  -0.02   0.01     0.05  -0.03   0.05
  12   1    -0.03   0.05  -0.05     0.03  -0.05   0.05     0.02  -0.00  -0.01
  13   1     0.10  -0.22   0.13     0.04  -0.07   0.07     0.06  -0.14   0.07
  14   1     0.28  -0.07  -0.10     0.35  -0.10  -0.11     0.54  -0.11  -0.17
  15   1    -0.05  -0.19   0.10    -0.00  -0.02   0.01     0.04   0.06  -0.09
  16   1     0.20  -0.05  -0.37     0.03  -0.00  -0.05    -0.04   0.02   0.05
  17   1    -0.13  -0.16   0.34    -0.01  -0.02   0.03     0.06   0.06  -0.15
                     28                     29                     30
                        a                      a                      a 
 Frequencies --  1285.4489              1336.3159              1391.4342
 Red. masses --    12.0104                11.8138                 2.9311
 Frc consts  --     0.0000                 0.0000                 0.0000
 IR Inten    --    69.6278                17.0353                 4.3689
 Raman Activ --     0.0000                 0.0000                 0.0000
 Depolar     --     0.0000                 0.0000                 0.0000
 Atom AN      X      Y      Z        X      Y      Z        X      Y      Z
   1   6     0.00   0.06  -0.06     0.03  -0.11   0.10    -0.17   0.15  -0.18
   2   6    -0.05  -0.16   0.15     0.01   0.28  -0.24     0.02   0.02  -0.01
   3   6     0.23  -0.13   0.02    -0.36   0.13   0.02    -0.04  -0.00   0.01
   4   6     0.05   0.21  -0.19     0.03  -0.32   0.28     0.06  -0.02  -0.01
   5   7    -0.14   0.31  -0.09     0.29   0.31  -0.35    -0.02   0.06  -0.03
   6   7    -0.14  -0.46   0.45    -0.04  -0.24   0.21    -0.02  -0.06   0.07
   7   6     0.12   0.14  -0.23     0.06   0.05  -0.11    -0.13  -0.04   0.23
   8  16     0.02  -0.01   0.08    -0.00  -0.01   0.01     0.00  -0.01   0.00
   9   8    -0.02   0.02  -0.12     0.01   0.00  -0.01    -0.00   0.00  -0.01
  10   1    -0.03  -0.02  -0.00     0.06   0.03   0.02     0.10  -0.11   0.32
  11   1    -0.05   0.02  -0.05     0.05  -0.01   0.07     0.30  -0.16   0.14
  12   1    -0.02   0.00   0.02     0.02  -0.01  -0.01     0.14  -0.26   0.15
  13   1    -0.02   0.18  -0.14    -0.05  -0.14   0.07    -0.01   0.01   0.00
  14   1    -0.12   0.10  -0.02    -0.16  -0.07   0.10    -0.04   0.01   0.02
  15   1     0.00  -0.09   0.00    -0.00  -0.05   0.03     0.05   0.11  -0.36
  16   1     0.04  -0.00  -0.11    -0.03   0.01   0.02     0.28  -0.08  -0.31
  17   1     0.00  -0.07   0.07    -0.01  -0.05   0.06     0.20   0.15  -0.25
                     31                     32                     33
                        a                      a                      a 
 Frequencies --  1398.0157              1436.8504              1447.0269
 Red. masses --     2.9609                11.2797                 1.6128
 Frc consts  --     0.0000                 0.0000                 0.0000
 IR Inten    --     9.4583                94.0364                 3.7776
 Raman Activ --     0.0000                 0.0000                 0.0000
 Depolar     --     0.0000                 0.0000                 0.0000
 Atom AN      X      Y      Z        X      Y      Z        X      Y      Z
   1   6    -0.19   0.17  -0.20     0.04  -0.07   0.06    -0.02  -0.03  -0.02
   2   6     0.01  -0.02   0.03    -0.11   0.30  -0.26    -0.01   0.03  -0.04
   3   6     0.02  -0.01  -0.00     0.26  -0.46   0.25     0.01  -0.04   0.03
   4   6    -0.02   0.02  -0.01    -0.52   0.26   0.08    -0.01   0.01  -0.01
   5   7    -0.01  -0.04   0.02     0.21  -0.03  -0.12    -0.01  -0.01   0.01
   6   7     0.03   0.04  -0.06     0.00   0.00  -0.01     0.03   0.02   0.01
   7   6     0.11   0.03  -0.21    -0.02  -0.02   0.02     0.16   0.08   0.11
   8  16    -0.00   0.01  -0.01     0.00   0.01  -0.01     0.00  -0.00  -0.00
   9   8    -0.00  -0.00   0.01     0.01  -0.01   0.02     0.00  -0.00   0.00
  10   1     0.13  -0.10   0.35     0.09   0.06   0.02     0.08   0.08  -0.02
  11   1     0.32  -0.16   0.15     0.01   0.06   0.06     0.01   0.10   0.09
  12   1     0.17  -0.29   0.16     0.05  -0.07   0.04     0.03  -0.08   0.06
  13   1     0.00   0.00  -0.00    -0.01   0.01  -0.11    -0.01   0.01  -0.01
  14   1     0.02   0.00  -0.01     0.13   0.00  -0.07    -0.00   0.00  -0.00
  15   1    -0.05  -0.05   0.32     0.01   0.01  -0.08    -0.05  -0.36   0.24
  16   1    -0.22   0.09   0.31     0.04   0.03   0.05    -0.53  -0.29  -0.36
  17   1    -0.20  -0.16   0.25     0.06  -0.03   0.01    -0.09   0.33  -0.32
                     34                     35                     36
                        a                      a                      a 
 Frequencies --  1462.5075              1466.7380              1471.7396
 Red. masses --     1.7005                 3.8970                 1.6396
 Frc consts  --     0.0000                 0.0000                 0.0000
 IR Inten    --     8.3532                17.1526                 3.2911
 Raman Activ --     0.0000                 0.0000                 0.0000
 Depolar     --     0.0000                 0.0000                 0.0000
 Atom AN      X      Y      Z        X      Y      Z        X      Y      Z
   1   6    -0.06  -0.00   0.03     0.12   0.16  -0.03     0.08  -0.08  -0.19
   2   6     0.00  -0.02   0.02    -0.00  -0.11   0.12     0.03  -0.04  -0.01
   3   6    -0.02   0.03  -0.01     0.08   0.09  -0.08    -0.02   0.02  -0.01
   4   6     0.06  -0.01  -0.02    -0.29   0.01   0.14     0.04  -0.01  -0.01
   5   7    -0.04  -0.03   0.04     0.20   0.03  -0.13    -0.02  -0.01   0.02
   6   7    -0.01   0.06  -0.02    -0.01   0.02   0.00    -0.01   0.02  -0.00
   7   6    -0.10   0.18   0.02     0.01   0.04   0.03    -0.04   0.04  -0.01
   8  16    -0.00   0.00  -0.00    -0.00   0.00  -0.00     0.00   0.00  -0.00
   9   8     0.00  -0.00   0.01    -0.00  -0.00   0.00    -0.00  -0.00   0.00
  10   1     0.14   0.09   0.06    -0.42  -0.42   0.06    -0.13   0.04  -0.26
  11   1    -0.08  -0.02  -0.08     0.19  -0.35  -0.12     0.17   0.38   0.45
  12   1     0.18  -0.04  -0.14    -0.28   0.24   0.04    -0.39  -0.08   0.51
  13   1     0.00   0.00   0.01     0.05  -0.04   0.01    -0.00  -0.00   0.00
  14   1    -0.01   0.00   0.00     0.10  -0.04  -0.02    -0.01   0.00   0.00
  15   1     0.01  -0.55  -0.28    -0.00  -0.17  -0.04     0.01  -0.10  -0.09
  16   1    -0.19   0.06   0.21    -0.14  -0.04  -0.00     0.00   0.05   0.10
  17   1     0.56  -0.24   0.05     0.11   0.01  -0.05     0.15  -0.10   0.05
                     37                     38                     39
                        a                      a                      a 
 Frequencies --  1489.3142              2980.2049              2988.1159
 Red. masses --     9.5082                 1.8229                 1.8302
 Frc consts  --     0.0000                 0.0000                 0.0000
 IR Inten    --    18.3752                 9.9581                13.4188
 Raman Activ --     0.0000                 0.0000                 0.0000
 Depolar     --     0.0000                 0.0000                 0.0000
 Atom AN      X      Y      Z        X      Y      Z        X      Y      Z
   1   6     0.11  -0.01   0.11     0.00  -0.00  -0.00     0.16  -0.16  -0.16
   2   6     0.02   0.39  -0.33    -0.00   0.00   0.00     0.01  -0.01   0.00
   3   6    -0.12  -0.30   0.21    -0.00   0.00  -0.00    -0.00   0.00  -0.00
   4   6     0.40   0.02  -0.21     0.00  -0.00  -0.00     0.00  -0.00  -0.00
   5   7    -0.28  -0.06   0.20    -0.00  -0.00   0.00    -0.00  -0.00   0.00
   6   7     0.02   0.00  -0.02     0.01   0.00  -0.01    -0.00   0.00   0.00
   7   6    -0.00   0.03  -0.02     0.26   0.01   0.08    -0.00   0.00   0.00
   8  16    -0.00   0.00  -0.00     0.00  -0.00  -0.00     0.00  -0.00  -0.00
   9   8     0.01  -0.00   0.01    -0.00   0.00   0.00    -0.00   0.00  -0.00
  10   1    -0.20  -0.22   0.04    -0.01   0.01   0.01    -0.56   0.62   0.43
  11   1     0.15  -0.22  -0.02    -0.00  -0.00   0.00    -0.09  -0.11   0.09
  12   1    -0.14   0.14   0.00     0.01   0.01   0.01     0.09   0.05   0.03
  13   1    -0.09   0.06  -0.03     0.00   0.00  -0.00     0.00   0.00  -0.00
  14   1    -0.14   0.07   0.03    -0.00   0.00  -0.00    -0.00  -0.00   0.00
  15   1    -0.01  -0.06   0.02    -0.93   0.06  -0.15     0.02  -0.00   0.00
  16   1    -0.04   0.00   0.02     0.02   0.05  -0.01    -0.00   0.01  -0.00
  17   1     0.02  -0.02   0.02    -0.02  -0.15  -0.11    -0.01  -0.02  -0.01
                     40                     41                     42
                        a                      a                      a 
 Frequencies --  3005.4462              3017.9655              3022.0023
 Red. masses --     1.5990                 1.9468                 1.3677
 Frc consts  --     0.0000                 0.0000                 0.0000
 IR Inten    --    10.5987                17.4746                 9.2274
 Raman Activ --     0.0000                 0.0000                 0.0000
 Depolar     --     0.0000                 0.0000                 0.0000
 Atom AN      X      Y      Z        X      Y      Z        X      Y      Z
   1   6     0.01  -0.00  -0.00    -0.20  -0.21   0.02    -0.04  -0.01  -0.17
   2   6     0.00  -0.00   0.00    -0.01  -0.01   0.00    -0.00   0.00  -0.01
   3   6    -0.00   0.00   0.00     0.00   0.00  -0.00     0.00  -0.00   0.00
   4   6     0.00  -0.00  -0.00    -0.00  -0.00   0.00    -0.00  -0.00   0.00
   5   7    -0.00   0.00   0.00     0.00   0.00   0.00    -0.00   0.00  -0.00
   6   7     0.00  -0.00  -0.01    -0.00   0.00  -0.00     0.00  -0.00   0.00
   7   6    -0.02  -0.18  -0.14    -0.01   0.01  -0.01     0.00  -0.04   0.01
   8  16    -0.00   0.00   0.00     0.00   0.00   0.00     0.00   0.00  -0.00
   9   8     0.00  -0.00  -0.00    -0.00   0.00  -0.00    -0.00  -0.00   0.00
  10   1    -0.02   0.02   0.01    -0.07   0.01   0.03     0.11  -0.13  -0.11
  11   1    -0.00  -0.00   0.00     0.42   0.34  -0.46    -0.37  -0.31   0.37
  12   1    -0.01  -0.01  -0.01     0.34   0.40   0.34     0.41   0.48   0.36
  13   1    -0.00   0.00   0.00    -0.01  -0.00   0.00    -0.00  -0.00   0.00
  14   1    -0.00   0.00  -0.00     0.00   0.00  -0.00     0.00   0.00  -0.00
  15   1    -0.20  -0.02  -0.05    -0.00   0.00  -0.00     0.02  -0.01   0.00
  16   1    -0.00  -0.04  -0.01     0.01  -0.06   0.02    -0.04   0.15  -0.07
  17   1     0.26   0.69   0.59     0.00   0.01   0.01     0.01   0.01   0.02
                     43                     44                     45
                        a                      a                      a 
 Frequencies --  3024.1438              3135.5555              3151.7399
 Red. masses --     1.6947                 1.8186                 1.8814
 Frc consts  --     0.0000                 0.0000                 0.0000
 IR Inten    --    11.3280                 7.5193                22.4260
 Raman Activ --     0.0000                 0.0000                 0.0000
 Depolar     --     0.0000                 0.0000                 0.0000
 Atom AN      X      Y      Z        X      Y      Z        X      Y      Z
   1   6    -0.01  -0.01   0.03     0.00   0.00  -0.00    -0.00  -0.00   0.00
   2   6    -0.00  -0.00   0.00     0.01  -0.00   0.00    -0.00   0.00  -0.00
   3   6    -0.00   0.00  -0.00     0.25   0.06  -0.07    -0.08  -0.02   0.02
   4   6     0.00  -0.00  -0.00     0.00  -0.06   0.04    -0.01  -0.22   0.15
   5   7    -0.00   0.00  -0.00    -0.00  -0.00   0.00     0.01  -0.01   0.00
   6   7    -0.00  -0.01   0.01    -0.00   0.00   0.00     0.00   0.00  -0.00
   7   6     0.04  -0.23   0.09     0.00   0.00   0.00    -0.00  -0.00   0.00
   8  16    -0.00  -0.00   0.00    -0.00   0.00  -0.00     0.00   0.00   0.00
   9   8     0.00   0.00  -0.00    -0.00  -0.00   0.00    -0.00   0.00  -0.00
  10   1    -0.02   0.02   0.02    -0.00   0.00   0.00     0.00  -0.00  -0.00
  11   1     0.10   0.08  -0.10    -0.00  -0.00   0.00     0.00   0.00  -0.00
  12   1    -0.05  -0.06  -0.04    -0.01  -0.01  -0.01     0.00   0.00   0.00
  13   1    -0.00   0.00  -0.00    -0.87  -0.21   0.23     0.26   0.06  -0.07
  14   1    -0.00  -0.00   0.00     0.01   0.23  -0.16     0.03   0.75  -0.53
  15   1     0.05  -0.03   0.02    -0.00   0.00  -0.00     0.00  -0.00   0.00
  16   1    -0.22   0.84  -0.37    -0.00  -0.00   0.00    -0.00   0.00   0.00
  17   1     0.02  -0.01   0.03    -0.00  -0.00  -0.00    -0.00  -0.00  -0.00
