17
Properties=species:S:1:pos:R:3 energy:=T -27.889130681822=T gnorm:=T 0.000454363433=T xtb:=T 6.7.1=T (edcfbbe)=T pbc="F F F"
C        1.18086676      -1.17499925       0.13231980
C        0.67052157       0.11816673      -0.38876736
C        1.27440157       1.09781884      -1.14988905
C        0.28736659       2.07499718      -1.32510636
N       -0.83309301       1.72598907      -0.72372056
N       -0.59393112       0.54366146      -0.16023177
C       -1.61519912      -0.12484564       0.58917132
S       -1.21108552      -4.14203455       1.80212812
O       -1.54662236      -5.42686440       2.42610274
H        0.59645594      -2.00797793      -0.26032944
H        2.21758563      -1.30715729      -0.16410799
H        1.12149162      -1.20530659       1.22085682
H        2.27829368       1.10622742      -1.52229557
H        0.34942260       3.00238715      -1.85871238
H       -1.83555383      -1.10370976       0.15739575
H       -2.50793930       0.49570995       0.55311789
H       -1.30905167      -0.25884458       1.62937249
