15
 energy: -20.624909341055 gnorm: 0.000415666386 xtb: 6.7.1 (edcfbbe)
C           -0.19302333260456        1.71344546406829        0.48673801220925
C           -0.51653962381596        0.32661775662371        0.06684704598182
C           -1.72365818987571       -0.29407214258104       -0.18075009051822
C           -1.38575367188388       -1.60305789308550       -0.54433435672511
N           -0.07846947196764       -1.77488307317452       -0.52470339343237
N            0.43953597275632       -0.60563846215929       -0.15436028242700
C            1.85704063956172       -0.44649265845109       -0.02455968909690
H            0.42608727627874        2.20971721621355       -0.26157964021489
H           -1.10975974621187        2.28252574500787        0.61268716508070
H            0.35282864653194        1.71567072164441        1.43087648433670
H           -2.70245298155378        0.13408334399320       -0.10863678024602
H           -2.03421774931319       -2.41182746736946       -0.81640894064568
H            2.22187359809616        0.33926695114198       -0.68987168541132
H            2.31957276317944       -1.39319958287597       -0.29508538397816
H            2.12693587082229       -0.19215590899615        1.00314154508723
