      -----------------------------------------------------------      
     |                   =====================                   |     
     |                           x T B                           |     
     |                   =====================                   |     
     |                         S. Grimme                         |     
     |          Mulliken Center for Theoretical Chemistry        |     
     |                    University of Bonn                     |     
      -----------------------------------------------------------      

   * xtb version 6.7.1 (edcfbbe) compiled by 'conda@3ef47c1a292c' on 2024-11-25

   xtb is free software: you can redistribute it and/or modify it under
   the terms of the GNU Lesser General Public License as published by
   the Free Software Foundation, either version 3 of the License, or
   (at your option) any later version.
   
   xtb is distributed in the hope that it will be useful,
   but WITHOUT ANY WARRANTY; without even the implied warranty of
   MERCHANTABILITY or FITNESS FOR A PARTICULAR PURPOSE.  See the
   GNU Lesser General Public License for more details.
   
   Cite this work as:
   * C. Bannwarth, E. Caldeweyher, S. Ehlert, A. Hansen, P. Pracht,
     J. Seibert, S. Spicher, S. Grimme, WIREs Comput. Mol. Sci., 2020, 11,
     e01493. DOI: 10.1002/wcms.1493
   
   for GFN2-xTB:
   * C. Bannwarth, S. Ehlert and S. Grimme., J. Chem. Theory Comput., 2019,
     15, 1652-1671. DOI: 10.1021/acs.jctc.8b01176
   for GFN1-xTB:
   * S. Grimme, C. Bannwarth, P. Shushkov, J. Chem. Theory Comput., 2017,
     13, 1989-2009. DOI: 10.1021/acs.jctc.7b00118
   for GFN0-xTB:
   * P. Pracht, E. Caldeweyher, S. Ehlert, S. Grimme, ChemRxiv, 2019, preprint.
     DOI: 10.26434/chemrxiv.8326202.v1
   for GFN-FF:
   * S. Spicher and S. Grimme, Angew. Chem. Int. Ed., 2020, 59, 15665-15673.
     DOI: 10.1002/anie.202004239
   
   for ALPB and GBSA implicit solvation:
   * S. Ehlert, M. Stahn, S. Spicher, S. Grimme, J. Chem. Theory Comput.,
     2021, 17, 4250-4261. DOI: 10.1021/acs.jctc.1c00471
   
   for ddCOSMO and CPCM-X implicit solvation:
   * M. Stahn, S. Ehlert, S. Grimme, J. Phys. Chem. A,
     2023, XX, XXXX-XXXX. DOI: 10.1021/acs.jpca.3c04382
   
   for DFT-D4:
   * E. Caldeweyher, C. Bannwarth and S. Grimme, J. Chem. Phys., 2017,
     147, 034112. DOI: 10.1063/1.4993215
   * E. Caldeweyher, S. Ehlert, A. Hansen, H. Neugebauer, S. Spicher,
     C. Bannwarth and S. Grimme, J. Chem. Phys., 2019, 150, 154122.
     DOI: 10.1063/1.5090222
   * E. Caldeweyher, J.-M. Mewes, S. Ehlert and S. Grimme, Phys. Chem. Chem. Phys.
     2020, 22, 8499-8512. DOI: 10.1039/D0CP00502A
   
   for sTDA-xTB:
   * S. Grimme and C. Bannwarth, J. Chem. Phys., 2016, 145, 054103.
     DOI: 10.1063/1.4959605
   
   in the mass-spec context:
   * V. Asgeirsson, C. Bauer and S. Grimme, Chem. Sci., 2017, 8, 4879.
     DOI: 10.1039/c7sc00601b
   * J. Koopman and S. Grimme, ACS Omega 2019, 4, 12, 15120-15133.
     DOI: 10.1021/acsomega.9b02011
   
   for metadynamics refer to:
   * S. Grimme, J. Chem. Theory Comput., 2019, 155, 2847-2862
     DOI: 10.1021/acs.jctc.9b00143
   
   for SPH calculations refer to:
   * S. Spicher and S. Grimme, J. Chem. Theory Comput., 2021, 17, 1701-1714
     DOI: 10.1021/acs.jctc.0c01306
   
   for ONIOM refer to:
   * C. Plett, A. Katbashev, S. Ehlert, S. Grimme, M. Bursch,
     Phys. Chem. Chem. Phys., 2023, 25, 17860-17868. DOI: 10.1039/D3CP02178E
   
   for DIPRO refer to:
   * J. Kohn, N. Gildemeister, S. Grimme, D. Fazzi, A. Hansen,
     J. Chem. Phys., 2023, just accepted.
   
   for PTB refer to:
   * S. Grimme, M. Mueller, A. Hansen, J. Chem. Phys., 2023, 158, 124111.
     DOI: 10.1063/5.0137838
   
   with help from (in alphabetical order)
   P. Atkinson, C. Bannwarth, F. Bohle, G. Brandenburg, E. Caldeweyher
   M. Checinski, S. Dohm, S. Ehlert, S. Ehrlich, I. Gerasimov, C. Hölzer
   A. Katbashev, J. Kohn, J. Koopman, C. Lavigne, S. Lehtola, F. März, M. Müller,
   F. Musil, H. Neugebauer, J. Pisarek, C. Plett, P. Pracht, F. Pultar,
   J. Seibert, P. Shushkov, S. Spicher, M. Stahn, M. Steiner, T. Strunk,
   J. Stückrath, T. Rose, and J. Unsleber
   
 * started run on 2026/08/20 at 02:37:37.928     
   ID    Z sym.   atoms
    1    6 C      1-4, 7
    2    7 N      5, 6
    3    1 H      8-15

           -------------------------------------------------
          |                Calculation Setup                |
           -------------------------------------------------

          program call               : /h/399/yunhengzou/micromamba/envs/el-agente/bin/xtb prodA_pyrazole_guess.xyz --opt --gfn 2 -P 4 --chrg 0 --uhf 0
          coordinate file            : prodA_pyrazole_guess.xyz
          omp threads                :                     4


           -------------------------------------------------
          |                 G F N 2 - x T B                 |
           -------------------------------------------------

        Reference                      10.1021/acs.jctc.8b01176
      * Hamiltonian:
        H0-scaling (s, p, d)           1.850000    2.230000    2.230000
        zeta-weighting                 0.500000
      * Dispersion:
        s8                             2.700000
        a1                             0.520000
        a2                             5.000000
        s9                             5.000000
      * Repulsion:
        kExp                           1.500000    1.000000
        rExp                           1.000000
      * Coulomb:
        alpha                          2.000000
        third order                    shell-resolved
        anisotropic                    true
        a3                             3.000000
        a5                             4.000000
        cn-shift                       1.200000
        cn-exp                         4.000000
        max-rad                        5.000000


          ...................................................
          :                      SETUP                      :
          :.................................................:
          :  # basis functions                  36          :
          :  # atomic orbitals                  36          :
          :  # shells                           22          :
          :  # electrons                        38          :
          :  max. iterations                   250          :
          :  Hamiltonian                  GFN2-xTB          :
          :  restarted?                      false          :
          :  GBSA solvation                  false          :
          :  PC potential                    false          :
          :  electronic temp.          300.0000000     K    :
          :  accuracy                    1.0000000          :
          :  -> integral cutoff          0.2500000E+02      :
          :  -> integral neglect         0.1000000E-07      :
          :  -> SCF convergence          0.1000000E-05 Eh   :
          :  -> wf. convergence          0.1000000E-03 e    :
          :  Broyden damping             0.4000000          :
          :  net charge                          0          :
          :  unpaired electrons                  0          :
          ...................................................

 iter      E             dE          RMSdq      gap      omega  full diag
   1    -20.8445205 -0.208445E+02  0.313E+00    5.23       0.0  T
   2    -20.8922630 -0.477425E-01  0.241E+00    4.81       1.0  T
   3    -20.9010741 -0.881104E-02  0.130E+00    4.87       1.0  T
   4    -20.9012801 -0.206030E-03  0.374E-01    4.82       1.0  T
   5    -20.9021385 -0.858401E-03  0.887E-02    4.79       1.0  T
   6    -20.9021528 -0.142587E-04  0.409E-02    4.77       1.0  T
   7    -20.9021610 -0.817824E-05  0.211E-02    4.78       1.2  T
   8    -20.9021615 -0.553668E-06  0.500E-03    4.78       5.2  T
   9    -20.9021617 -0.228015E-06  0.118E-03    4.78      21.9  T
  10    -20.9021617 -0.444339E-08  0.540E-04    4.78      47.8  T
  11    -20.9021617 -0.125226E-09  0.184E-04    4.78     140.2  T

   *** convergence criteria satisfied after 11 iterations ***

         #    Occupation            Energy/Eh            Energy/eV
      -------------------------------------------------------------
         1        2.0000           -0.6809944             -18.5308
       ...           ...                  ...                  ...
        13        2.0000           -0.4799457             -13.0600
        14        2.0000           -0.4741700             -12.9028
        15        2.0000           -0.4610155             -12.5449
        16        2.0000           -0.4391853             -11.9508
        17        2.0000           -0.3911361             -10.6434
        18        2.0000           -0.3777063             -10.2779
        19        2.0000           -0.3749816             -10.2038 (HOMO)
        20                         -0.1994192              -5.4265 (LUMO)
        21                         -0.1437782              -3.9124
        22                         -0.0116268              -0.3164
        23                          0.0870916               2.3699
        24                          0.1038400               2.8256
       ...                                ...                  ...
        36                          0.6705196              18.2458
      -------------------------------------------------------------
                  HL-Gap            0.1755624 Eh            4.7773 eV
             Fermi-level           -0.2872004 Eh           -7.8151 eV

 SCC (total)                   0 d,  0 h,  0 min,  2.740 sec
 SCC setup                      ...        0 min,  0.022 sec (  0.816%)
 Dispersion                     ...        0 min,  0.035 sec (  1.289%)
 classical contributions        ...        0 min,  0.061 sec (  2.217%)
 integral evaluation            ...        0 min,  0.068 sec (  2.472%)
 iterations                     ...        0 min,  2.553 sec ( 93.160%)
 molecular gradient             ...        0 min,  0.001 sec (  0.041%)
 printout                       ...        0 min,  0.000 sec (  0.004%)

         :::::::::::::::::::::::::::::::::::::::::::::::::::::
         ::                     SUMMARY                     ::
         :::::::::::::::::::::::::::::::::::::::::::::::::::::
         :: total energy             -20.618523237100 Eh    ::
         :: gradient norm              0.058451392301 Eh/a0 ::
         :: HOMO-LUMO gap              4.777296630136 eV    ::
         ::.................................................::
         :: SCC energy               -20.902137821831 Eh    ::
         :: -> isotropic ES            0.011661346011 Eh    ::
         :: -> anisotropic ES          0.003508993421 Eh    ::
         :: -> anisotropic XC          0.018214572430 Eh    ::
         :: -> dispersion             -0.010062130181 Eh    ::
         :: repulsion energy           0.283614584731 Eh    ::
         :: add. restraining           0.000000000000 Eh    ::
         :: total charge              -0.000000000000 e     ::
         :::::::::::::::::::::::::::::::::::::::::::::::::::::

      ----------------------------------------------------------- 
     |                   =====================                   |
     |                        A N C O P T                        |
     |                   =====================                   |
     |               Approximate Normal Coordinate               |
     |                Rational Function Optimizer                |
      ----------------------------------------------------------- 
      ----------------------------------------------------------- 
     |                   =====================                   |
     |                        A N C O P T                        |
     |                   =====================                   |
     |               Approximate Normal Coordinate               |
     |                Rational Function Optimizer                |
      ----------------------------------------------------------- 

          ...................................................
          :                      SETUP                      :
          :.................................................:
          :   optimization level            normal          :
          :   max. optcycles                   200          :
          :   ANC micro-cycles                  20          :
          :   degrees of freedom                39          :
          :.................................................:
          :   RF solver                   davidson          :
          :   write xtbopt.log                true          :
          :   linear?                        false          :
          :   energy convergence         0.5000000E-05 Eh   :
          :   grad. convergence          0.1000000E-02 Eh/α :
          :   maxmium RF displ.          1.0000000          :
          :   Hlow (freq-cutoff)         0.1000000E-01      :
          :   Hmax (freq-cutoff)         5.0000000          :
          :   S6 in model hess.         20.0000000          :
          ...................................................

generating ANC from exact Hessian ...
Using Lindh-Hessian (1995)
 Shifting diagonal of input Hessian by    3.8736758815947998E-003
 Lowest  eigenvalues of input Hessian
    0.000000    0.000000    0.000000    0.000000    0.000000    0.000000
    0.010000    0.012504    0.015188    0.016309    0.018024    0.034415
    0.046620    0.051007    0.059917    0.060597    0.073010    0.089268
 Highest eigenvalues
    1.192969    1.555430    1.842354    1.855578    2.025196    2.078425


........................................................................
.............................. CYCLE    1 ..............................
........................................................................

 iter      E             dE          RMSdq      gap      omega  full diag
   1    -20.9021617 -0.209022E+02  0.432E-05    4.78       0.0  T
   2    -20.9021617 -0.161293E-11  0.246E-05    4.78    1051.4  T
   3    -20.9021617 -0.461853E-13  0.890E-06    4.78    2902.2  T
     SCC iter.                  ...        0 min,  2.463 sec
     gradient                   ...        0 min,  0.244 sec
 * total energy  :   -20.6185232 Eh     change       -0.1510365E-09 Eh
   gradient norm :     0.0584491 Eh/α   predicted     0.0000000E+00 (-100.00%)
   displ. norm   :     0.2636574 α      lambda       -0.8685502E-02
   maximum displ.:     0.1443327 α      in ANC's #6, #8, #10, ...

........................................................................
.............................. CYCLE    2 ..............................
........................................................................

 iter      E             dE          RMSdq      gap      omega  full diag
   1    -20.9242285 -0.209242E+02  0.320E-01    4.86       0.0  T
   2    -20.9243296 -0.101059E-03  0.185E-01    4.90       1.0  T
   3    -20.9243211  0.851430E-05  0.590E-02    4.88       1.0  T
   4    -20.9243443 -0.231844E-04  0.141E-02    4.89       1.8  T
   5    -20.9243453 -0.103024E-05  0.646E-03    4.89       4.0  T
   6    -20.9243453  0.135105E-07  0.191E-03    4.89      13.5  T
   7    -20.9243453 -0.413611E-07  0.535E-04    4.89      48.2  T
   8    -20.9243453 -0.921574E-10  0.210E-04    4.89     123.0  T
     SCC iter.                  ...        0 min,  2.179 sec
     gradient                   ...        0 min,  0.084 sec
 * total energy  :   -20.6240601 Eh     change       -0.5536889E-02 Eh
   gradient norm :     0.0168698 Eh/α   predicted    -0.4644643E-02 ( -16.11%)
   displ. norm   :     0.1537538 α      lambda       -0.1204208E-02
   maximum displ.:     0.1169189 α      in ANC's #6, #10, #3, ...

........................................................................
.............................. CYCLE    3 ..............................
........................................................................

 iter      E             dE          RMSdq      gap      omega  full diag
   1    -20.9305829 -0.209306E+02  0.127E-01    4.92       0.0  T
   2    -20.9305980 -0.150609E-04  0.757E-02    4.94       1.0  T
   3    -20.9305960  0.198066E-05  0.250E-02    4.94       1.0  T
   4    -20.9306003 -0.435172E-05  0.559E-03    4.94       4.6  T
   5    -20.9306005 -0.175352E-06  0.230E-03    4.94      11.2  T
   6    -20.9306005  0.834120E-09  0.740E-04    4.94      34.9  T
   7    -20.9306005 -0.441390E-08  0.190E-04    4.94     135.9  T
     SCC iter.                  ...        0 min,  1.619 sec
     gradient                   ...        0 min,  0.242 sec
 * total energy  :   -20.6247427 Eh     change       -0.6825444E-03 Eh
   gradient norm :     0.0054803 Eh/α   predicted    -0.6163405E-03 (  -9.70%)
   displ. norm   :     0.0712591 α      lambda       -0.1371288E-03
   maximum displ.:     0.0571507 α      in ANC's #6, #3, #1, ...

........................................................................
.............................. CYCLE    4 ..............................
........................................................................

 iter      E             dE          RMSdq      gap      omega  full diag
   1    -20.9301929 -0.209302E+02  0.365E-02    4.94       0.0  T
   2    -20.9301935 -0.592550E-06  0.205E-02    4.94       1.3  T
   3    -20.9301934  0.819488E-07  0.544E-03    4.94       4.7  T
   4    -20.9301936 -0.182034E-06  0.134E-03    4.94      19.3  T
   5    -20.9301936 -0.812760E-08  0.603E-04    4.94      42.8  T
   6    -20.9301936 -0.203762E-09  0.154E-04    4.94     168.0  T
     SCC iter.                  ...        0 min,  1.034 sec
     gradient                   ...        0 min,  0.669 sec
 * total energy  :   -20.6248393 Eh     change       -0.9667249E-04 Eh
   gradient norm :     0.0039167 Eh/α   predicted    -0.6891232E-04 ( -28.72%)
   displ. norm   :     0.0584710 α      lambda       -0.5758072E-04
   maximum displ.:     0.0371313 α      in ANC's #6, #1, #3, ...

........................................................................
.............................. CYCLE    5 ..............................
........................................................................

 iter      E             dE          RMSdq      gap      omega  full diag
   1    -20.9296319 -0.209296E+02  0.289E-02    4.94       0.0  T
   2    -20.9296326 -0.777395E-06  0.157E-02    4.93       1.6  T
   3    -20.9296326  0.836926E-07  0.662E-03    4.94       3.9  T
   4    -20.9296328 -0.279555E-06  0.108E-03    4.94      24.0  T
   5    -20.9296328 -0.598455E-09  0.466E-04    4.94      55.4  T
   6    -20.9296328 -0.110841E-09  0.887E-05    4.94     291.2  T
     SCC iter.                  ...        0 min,  1.277 sec
     gradient                   ...        0 min,  0.384 sec
 * total energy  :   -20.6248712 Eh     change       -0.3181400E-04 Eh
   gradient norm :     0.0010859 Eh/α   predicted    -0.2888768E-04 (  -9.20%)
   displ. norm   :     0.0287958 α      lambda       -0.4750776E-05
   maximum displ.:     0.0218666 α      in ANC's #1, #4, #2, ...

........................................................................
.............................. CYCLE    6 ..............................
........................................................................

 iter      E             dE          RMSdq      gap      omega  full diag
   1    -20.9297410 -0.209297E+02  0.947E-03    4.93       0.0  T
   2    -20.9297411 -0.983027E-07  0.567E-03    4.93       4.6  T
   3    -20.9297411  0.102990E-07  0.248E-03    4.93      10.4  T
   4    -20.9297411 -0.365232E-07  0.305E-04    4.93      84.7  T
   5    -20.9297411 -0.134364E-09  0.159E-04    4.93     162.2  T
     SCC iter.                  ...        0 min,  1.219 sec
     gradient                   ...        0 min,  0.400 sec
 * total energy  :   -20.6248765 Eh     change       -0.5389282E-05 Eh
   gradient norm :     0.0006659 Eh/α   predicted    -0.2377023E-05 ( -55.89%)
   displ. norm   :     0.0530604 α      lambda       -0.6762270E-05
   maximum displ.:     0.0363844 α      in ANC's #1, #4, #2, ...

........................................................................
.............................. CYCLE    7 ..............................
........................................................................

 iter      E             dE          RMSdq      gap      omega  full diag
   1    -20.9298924 -0.209299E+02  0.155E-02    4.93       0.0  T
   2    -20.9298925 -0.361943E-07  0.934E-03    4.93       2.8  T
   3    -20.9298924  0.358956E-07  0.206E-03    4.93      12.6  T
   4    -20.9298925 -0.476199E-07  0.319E-04    4.93      81.1  T
   5    -20.9298925 -0.157307E-09  0.162E-04    4.93     159.6  T
     SCC iter.                  ...        0 min,  1.577 sec
     gradient                   ...        0 min,  0.251 sec
 * total energy  :   -20.6248850 Eh     change       -0.8480146E-05 Eh
   gradient norm :     0.0014132 Eh/α   predicted    -0.3384318E-05 ( -60.09%)
   displ. norm   :     0.1101928 α      lambda       -0.1155253E-04
   maximum displ.:     0.0785352 α      in ANC's #1, #4, #2, ...

........................................................................
.............................. CYCLE    8 ..............................
........................................................................

 iter      E             dE          RMSdq      gap      omega  full diag
   1    -20.9297010 -0.209297E+02  0.302E-02    4.93       0.0  T
   2    -20.9297010 -0.511571E-07  0.181E-02    4.93       1.4  T
   3    -20.9297010  0.848642E-08  0.171E-03    4.93      15.1  T
   4    -20.9297011 -0.266155E-07  0.602E-04    4.93      42.9  T
   5    -20.9297011 -0.714138E-09  0.208E-04    4.93     123.9  T
     SCC iter.                  ...        0 min,  1.384 sec
     gradient                   ...        0 min,  0.324 sec
 * total energy  :   -20.6248983 Eh     change       -0.1323530E-04 Eh
   gradient norm :     0.0016418 Eh/α   predicted    -0.5807472E-05 ( -56.12%)
   displ. norm   :     0.0910030 α      lambda       -0.7749386E-05
   maximum displ.:     0.0672837 α      in ANC's #1, #4, #5, ...

........................................................................
.............................. CYCLE    9 ..............................
........................................................................

 iter      E             dE          RMSdq      gap      omega  full diag
   1    -20.9297210 -0.209297E+02  0.246E-02    4.93       0.0  T
   2    -20.9297211 -0.512032E-07  0.148E-02    4.93       1.7  T
   3    -20.9297210  0.402184E-07  0.203E-03    4.93      12.7  T
   4    -20.9297211 -0.566113E-07  0.379E-04    4.93      68.2  T
   5    -20.9297211 -0.658069E-10  0.117E-04    4.93     219.9  T
     SCC iter.                  ...        0 min,  1.298 sec
     gradient                   ...        0 min,  0.286 sec
 * total energy  :   -20.6249064 Eh     change       -0.8123341E-05 Eh
   gradient norm :     0.0008337 Eh/α   predicted    -0.3887621E-05 ( -52.14%)
   displ. norm   :     0.0528201 α      lambda       -0.3343654E-05
   maximum displ.:     0.0430909 α      in ANC's #1, #4, #5, ...

........................................................................
.............................. CYCLE   10 ..............................
........................................................................

 iter      E             dE          RMSdq      gap      omega  full diag
   1    -20.9298420 -0.209298E+02  0.148E-02    4.94       0.0  T
   2    -20.9298420 -0.291027E-07  0.883E-03    4.94       2.9  T
   3    -20.9298420  0.236994E-07  0.171E-03    4.94      15.1  T
   4    -20.9298420 -0.331461E-07  0.330E-04    4.94      78.2  T
   5    -20.9298420 -0.882281E-10  0.155E-04    4.94     166.3  T
     SCC iter.                  ...        0 min,  1.043 sec
     gradient                   ...        0 min,  0.292 sec
 * total energy  :   -20.6249093 Eh     change       -0.2955660E-05 Eh
   gradient norm :     0.0004159 Eh/α   predicted    -0.1674669E-05 ( -43.34%)
   displ. norm   :     0.0280447 α      lambda       -0.1404344E-05
   maximum displ.:     0.0234235 α      in ANC's #1, #4, #5, ...

   *** GEOMETRY OPTIMIZATION CONVERGED AFTER 10 ITERATIONS ***

------------------------------------------------------------------------
 total energy gain   :        -0.0063861 Eh       -4.0073 kcal/mol
 total RMSD          :         0.1644314 a0        0.0870 Å
 total power (kW/mol):        -1.6766713 (step)   -0.8174 (real)
------------------------------------------------------------------------

 ANCopt (total)                0 d,  0 h,  0 min, 20.513 sec
 optimizer setup                ...        0 min,  0.000 sec (  0.001%)
 model hessian                  ...        0 min,  0.003 sec (  0.013%)
 ANC generation                 ...        0 min,  0.000 sec (  0.002%)
 coordinate transformation      ...        0 min,  0.000 sec (  0.001%)
 single point calculation       ...        0 min, 20.151 sec ( 98.236%)
 optimization log               ...        0 min,  0.001 sec (  0.004%)
 hessian update                 ...        0 min,  0.355 sec (  1.729%)
 rational function              ...        0 min,  0.001 sec (  0.007%)

================
 final structure:
================
15
 xtb: 6.7.1 (edcfbbe)
C           -0.19302333260456        1.71344546406829        0.48673801220925
C           -0.51653962381596        0.32661775662371        0.06684704598182
C           -1.72365818987571       -0.29407214258104       -0.18075009051822
C           -1.38575367188388       -1.60305789308550       -0.54433435672511
N           -0.07846947196764       -1.77488307317452       -0.52470339343237
N            0.43953597275632       -0.60563846215929       -0.15436028242700
C            1.85704063956172       -0.44649265845109       -0.02455968909690
H            0.42608727627874        2.20971721621355       -0.26157964021489
H           -1.10975974621187        2.28252574500787        0.61268716508070
H            0.35282864653194        1.71567072164441        1.43087648433670
H           -2.70245298155378        0.13408334399320       -0.10863678024602
H           -2.03421774931319       -2.41182746736946       -0.81640894064568
H            2.22187359809616        0.33926695114198       -0.68987168541132
H            2.31957276317944       -1.39319958287597       -0.29508538397816
H            2.12693587082229       -0.19215590899615        1.00314154508723

 Bond Distances (Angstroems)
 ---------------------------
C1-C2=1.4847         C1-H8=1.0907         C1-H9=1.0863         C1-H10=1.0906        C2-C1=1.4847         C2-C3=1.3797         
C2-N6=1.3536         C3-C2=1.3797         C3-C4=1.3999         C3-H11=1.0708        C4-C3=1.3999         C4-N5=1.3187         
C4-H12=1.0717        N5-C4=1.3187         N5-N6=1.3314         N6-C2=1.3536         N6-N5=1.3314         N6-C7=1.4323         
C7-N6=1.4323         C7-H13=1.0923        C7-H14=1.0878        C7-H15=1.0926        H8-C1=1.0907         H9-C1=1.0863         
H10-C1=1.0906        H11-C3=1.0708        H12-C4=1.0717        H13-C7=1.0923        H14-C7=1.0878        H15-C7=1.0926        
 C  H  Rav=1.0854 sigma=0.0084  Rmin=1.0708  Rmax=1.0926     8
 C  C  Rav=1.4215 sigma=0.0455  Rmin=1.3797  Rmax=1.4847     3
 N  C  Rav=1.3682 sigma=0.0475  Rmin=1.3187  Rmax=1.4323     3
 N  N  Rav=1.3314 sigma=0.0000  Rmin=1.3314  Rmax=1.3314     1

 selected bond angles (degree)
 --------------------
H8-C1-C2=110.77                H9-C1-C2=109.77                H9-C1-H8=108.68                H10-C1-C2=110.84               
H10-C1-H8=108.00               H10-C1-H9=108.72               C3-C2-C1=131.42                N6-C2-C1=122.39                
N6-C2-C3=106.19                C4-C3-C2=104.84                H11-C3-C2=127.43               H11-C3-C4=127.73               
N5-C4-C3=110.93                H12-C4-C3=128.72               H12-C4-N5=120.35               N6-N5-C4=105.99                
N5-N6-C2=112.06                C7-N6-C2=127.42                C7-N6-N5=120.52                H13-C7-N6=110.81               
H14-C7-N6=107.55               H14-C7-H13=109.42              H15-C7-N6=110.83               H15-C7-H13=108.84              
H15-C7-H14=109.36              

 selected dihedral angles (degree)
 ---------------------------------
C3-C2-C1-H8=240.66            C3-C2-C1-H9=  0.68            C3-C2-C1-H10=120.79           N6-C2-C1-H8= 60.43            
N6-C2-C1-H9=180.44            N6-C2-C1-H10=300.56           C4-C3-C2-C1=179.86            C4-C3-C2-N6=  0.07            
H11-C3-C2-C1=359.80           H11-C3-C2-N6=180.01           N5-C4-C3-C2=359.91            N5-C4-C3-H11=179.97           
H12-C4-C3-C2=180.02           H12-C4-C3-H11=  0.08          N6-N5-C4-C3=  0.08            N6-N5-C4-H12=179.98           
N5-N6-C2-C1=180.16            N5-N6-C2-C3=359.98            C7-N6-C2-C1=  0.47            C7-N6-C2-C3=180.29            
C2-N6-N5-C4=359.97            C7-N6-N5-C4=179.68            H13-C7-N6-C2=300.42           H13-C7-N6-N5=120.76           
H14-C7-N6-C2=180.86           H14-C7-N6-N5=  1.20           H15-C7-N6-C2= 61.37           H15-C7-N6-N5=241.71           
           -------------------------------------------------
          |                Final Singlepoint                |
           -------------------------------------------------

          ...................................................
          :                      SETUP                      :
          :.................................................:
          :  # basis functions                  36          :
          :  # atomic orbitals                  36          :
          :  # shells                           22          :
          :  # electrons                        38          :
          :  max. iterations                   250          :
          :  Hamiltonian                  GFN2-xTB          :
          :  restarted?                      false          :
          :  GBSA solvation                  false          :
          :  PC potential                    false          :
          :  electronic temp.          300.0000000     K    :
          :  accuracy                    1.0000000          :
          :  -> integral cutoff          0.2500000E+02      :
          :  -> integral neglect         0.1000000E-07      :
          :  -> SCF convergence          0.1000000E-05 Eh   :
          :  -> wf. convergence          0.1000000E-03 e    :
          :  Broyden damping             0.4000000          :
          :  net charge                          0          :
          :  unpaired electrons                  0          :
          ...................................................

 iter      E             dE          RMSdq      gap      omega  full diag
   1    -20.9298420 -0.209298E+02  0.360E-05    4.94       0.0  T
   2    -20.9298420 -0.733635E-11  0.220E-05    4.94    1175.8  T
   3    -20.9298420 -0.394351E-11  0.104E-05    4.94    2472.2  T

   *** convergence criteria satisfied after 3 iterations ***

         #    Occupation            Energy/Eh            Energy/eV
      -------------------------------------------------------------
         1        2.0000           -0.6804097             -18.5149
       ...           ...                  ...                  ...
        13        2.0000           -0.4801973             -13.0668
        14        2.0000           -0.4722355             -12.8502
        15        2.0000           -0.4600258             -12.5179
        16        2.0000           -0.4444449             -12.0940
        17        2.0000           -0.3870315             -10.5317
        18        2.0000           -0.3821441             -10.3987
        19        2.0000           -0.3793002             -10.3213 (HOMO)
        20                         -0.1979156              -5.3856 (LUMO)
        21                         -0.1448861              -3.9426
        22                          0.0134443               0.3658
        23                          0.1084984               2.9524
        24                          0.1199386               3.2637
       ...                                ...                  ...
        36                          0.6772512              18.4289
      -------------------------------------------------------------
                  HL-Gap            0.1813846 Eh            4.9357 eV
             Fermi-level           -0.2886079 Eh           -7.8534 eV

 SCC (total)                   0 d,  0 h,  0 min,  0.961 sec
 SCC setup                      ...        0 min,  0.019 sec (  2.012%)
 Dispersion                     ...        0 min,  0.054 sec (  5.661%)
 classical contributions        ...        0 min,  0.037 sec (  3.838%)
 integral evaluation            ...        0 min,  0.164 sec ( 17.063%)
 iterations                     ...        0 min,  0.474 sec ( 49.376%)
 molecular gradient             ...        0 min,  0.212 sec ( 22.034%)
 printout                       ...        0 min,  0.000 sec (  0.015%)

         :::::::::::::::::::::::::::::::::::::::::::::::::::::
         ::                     SUMMARY                     ::
         :::::::::::::::::::::::::::::::::::::::::::::::::::::
         :: total energy             -20.624909341055 Eh    ::
         :: gradient norm              0.000415666386 Eh/a0 ::
         :: HOMO-LUMO gap              4.935725242822 eV    ::
         ::.................................................::
         :: SCC energy               -20.929818659929 Eh    ::
         :: -> isotropic ES            0.011359004787 Eh    ::
         :: -> anisotropic ES          0.002608856078 Eh    ::
         :: -> anisotropic XC          0.016842050247 Eh    ::
         :: -> dispersion             -0.010116226284 Eh    ::
         :: repulsion energy           0.304909318874 Eh    ::
         :: add. restraining           0.000000000000 Eh    ::
         :: total charge               0.000000000000 e     ::
         :::::::::::::::::::::::::::::::::::::::::::::::::::::

           -------------------------------------------------
          |                Property Printout                |
           -------------------------------------------------

    * Orbital Energies and Occupations

         #    Occupation            Energy/Eh            Energy/eV
      -------------------------------------------------------------
         1        2.0000           -0.6804097             -18.5149
       ...           ...                  ...                  ...
         7        2.0000           -0.5507833             -14.9876
         8        2.0000           -0.5503106             -14.9747
         9        2.0000           -0.5249498             -14.2846
        10        2.0000           -0.4961155             -13.5000
        11        2.0000           -0.4957278             -13.4894
        12        2.0000           -0.4860489             -13.2261
        13        2.0000           -0.4801973             -13.0668
        14        2.0000           -0.4722355             -12.8502
        15        2.0000           -0.4600258             -12.5179
        16        2.0000           -0.4444449             -12.0940
        17        2.0000           -0.3870315             -10.5317
        18        2.0000           -0.3821441             -10.3987
        19        2.0000           -0.3793002             -10.3213 (HOMO)
        20                         -0.1979156              -5.3856 (LUMO)
        21                         -0.1448861              -3.9426
        22                          0.0134443               0.3658
        23                          0.1084984               2.9524
        24                          0.1199386               3.2637
        25                          0.1366935               3.7196
        26                          0.1603822               4.3642
        27                          0.1801843               4.9031
        28                          0.1809789               4.9247
        29                          0.1945663               5.2944
        30                          0.2252406               6.1291
       ...                                ...                  ...
        36                          0.6772512              18.4289
      -------------------------------------------------------------
                  HL-Gap            0.1813846 Eh            4.9357 eV
             Fermi-level           -0.2886079 Eh           -7.8534 eV

     #   Z          covCN         q      C6AA      α(0)
     1   6 C        3.754    -0.108    22.625     6.783
     2   6 C        3.068     0.024    27.400     8.583
     3   6 C        3.025    -0.087    30.147     9.006
     4   6 C        3.117     0.023    27.339     8.564
     5   7 N        2.004    -0.246    27.203     7.736
     6   7 N        3.049     0.076    19.921     6.629
     7   6 C        3.692    -0.059    21.834     6.686
     8   1 H        0.924     0.045     2.385     2.415
     9   1 H        0.925     0.051     2.310     2.377
    10   1 H        0.924     0.045     2.385     2.415
    11   1 H        0.926     0.019     2.751     2.594
    12   1 H        0.926     0.024     2.668     2.554
    13   1 H        0.924     0.056     2.244     2.343
    14   1 H        0.925     0.082     1.958     2.188
    15   1 H        0.924     0.056     2.246     2.344

 Mol. C6AA /au·bohr⁶  :       2236.496413
 Mol. C8AA /au·bohr⁸  :      50360.363424
 Mol. α(0) /au        :         73.217063


Wiberg/Mayer (AO) data.
largest (>0.10) Wiberg bond orders for each atom

 ---------------------------------------------------------------------------
     #   Z sym  total        # sym  WBO       # sym  WBO       # sym  WBO
 ---------------------------------------------------------------------------
     1   6 C    3.997 --     2 C    1.030     9 H    0.984    10 H    0.971
                             8 H    0.971
     2   6 C    3.959 --     3 C    1.475     6 N    1.257     1 C    1.030
                             5 N    0.147
     3   6 C    3.976 --     2 C    1.475     4 C    1.370    11 H    0.975
     4   6 C    3.979 --     5 N    1.508     3 C    1.370    12 H    0.970
     5   7 N    2.961 --     4 C    1.508     6 N    1.199     2 C    0.147
     6   7 N    3.663 --     2 C    1.257     5 N    1.199     7 C    1.007
     7   6 C    3.972 --     6 N    1.007    14 H    0.979    13 H    0.973
                            15 H    0.973
     8   1 H    0.998 --     1 C    0.971
     9   1 H    0.997 --     1 C    0.984
    10   1 H    0.998 --     1 C    0.971
    11   1 H    1.000 --     3 C    0.975
    12   1 H    0.999 --     4 C    0.970
    13   1 H    0.997 --     7 C    0.973
    14   1 H    0.993 --     7 C    0.979
    15   1 H    0.997 --     7 C    0.973
 ---------------------------------------------------------------------------

Topologies differ in total number of bonds
Writing topology from bond orders to xtbtopo.mol

molecular dipole:
                 x           y           z       tot (Debye)
 q only:        0.722       0.678       0.238
   full:        0.553       1.014       0.328       3.051
molecular quadrupole (traceless):
                xx          xy          yy          xz          yz          zz
 q only:        3.087      -0.855      -2.161      -0.038      -0.452      -0.926
  q+dip:        4.618       0.041      -3.566       0.313      -0.808      -1.051
   full:        4.249       0.257      -3.978       0.309      -1.177      -0.271

           -------------------------------------------------
          |                Geometry Summary                 |
           -------------------------------------------------

      molecular mass/u    :       96.1306119
   center of mass at/Å    :       -0.1757332      -0.3566381      -0.1142631
  moments of inertia/u·Å² :        0.1264540E+03   0.1519681E+03   0.2721001E+03
rotational constants/cm⁻¹ :        0.1333104E+00   0.1109287E+00   0.6195378E-01

 * 15 selected distances

     #   Z          #   Z                                           value/Å
     1   6 C        2   6 C                                       1.4846760 (max)
     2   6 C        3   6 C                                       1.3797449
     3   6 C        4   6 C                                       1.3999347
     4   6 C        5   7 N                                       1.3186742
     2   6 C        6   7 N                                       1.3535565
     5   7 N        6   7 N                                       1.3313966
     6   7 N        7   6 C                                       1.4323042
     1   6 C        8   1 H                                       1.0906710
     1   6 C        9   1 H                                       1.0863339
     1   6 C       10   1 H                                       1.0905765
     3   6 C       11   1 H                                       1.0707740 (min)
     4   6 C       12   1 H                                       1.0717456
     7   6 C       13   1 H                                       1.0923193
     7   6 C       14   1 H                                       1.0878301
     7   6 C       15   1 H                                       1.0925661

 * 4 distinct bonds (by element types)

   Z      Z             #   av. dist./Å        max./Å        min./Å
   1 H    6 C           8     1.0853521     1.0925661     1.0707740
   6 C    6 C           3     1.4214518     1.4846760     1.3797449
   6 C    7 N           3     1.3681783     1.4323042     1.3186742
   7 N    7 N           1     1.3313966     1.3313966     1.3313966


optimized geometry written to: xtbopt.xyz


           -------------------------------------------------
          | TOTAL ENERGY              -20.624909341055 Eh   |
          | GRADIENT NORM               0.000415666386 Eh/α |
          | HOMO-LUMO GAP               4.935725242822 eV   |
           -------------------------------------------------

------------------------------------------------------------------------
 * finished run on 2026/08/20 at 02:38:02.394     
------------------------------------------------------------------------
 total:
 * wall-time:     0 d,  0 h,  0 min, 24.465 sec
 *  cpu-time:     0 d,  0 h,  0 min, 40.307 sec
 * ratio c/w:     1.647 speedup
 SCF:
 * wall-time:     0 d,  0 h,  0 min,  2.740 sec
 *  cpu-time:     0 d,  0 h,  0 min,  5.896 sec
 * ratio c/w:     2.152 speedup
 ANC optimizer:
 * wall-time:     0 d,  0 h,  0 min, 21.484 sec
 *  cpu-time:     0 d,  0 h,  0 min, 34.017 sec
 * ratio c/w:     1.583 speedup

