17
Properties=species:S:1:pos:R:3:forces:R:3:charge:R:1 energy:=T -27.838667913345=T gnorm:=T 0.000608360484=T xtb:=T 6.7.1=T (edcfbbe)=T energy=-757.9065684874655 free_energy=-757.9065684874655 dipole="0.27087619355585457 -0.2871800437412318 0.9846944048352497" pbc="F F F"
C        1.57804731      -1.09962808       0.48874166       0.01137228      -0.00550733      -0.00208751      -0.11440305
C        0.74961768      -0.38102333      -0.51805954      -0.01389719      -0.00157658       0.00007601      -0.00408190
C        1.09429673       0.70863638      -1.31401985       0.00297014       0.01254124       0.00832617      -0.09223103
C        0.03278191       1.57419569      -1.54001539       0.01074407       0.00271659       0.00109030       0.04736235
N       -1.03120116       1.39178348      -0.77877624      -0.00488522      -0.00527061      -0.01004358      -0.22498410
N       -0.97461126       0.24672016      -0.13703481      -0.00536612      -0.00142333      -0.00327877       0.03727092
C       -1.68372864       0.10182694       1.10687334       0.00077056       0.00178691      -0.00898881      -0.06361419
S       -0.73921921      -1.28833581      -1.11596305      -0.00481740      -0.01183383       0.00657957       0.38985759
O       -0.96279740      -0.97053949      -2.51075754      -0.02667726      -0.03748404       0.00533326      -0.43500859
H        2.23314712      -1.82127469      -0.00113380      -0.00447082       0.00774495      -0.01919109       0.06222384
H        0.93673263      -1.64820405       1.17694355       0.01918331      -0.00425310      -0.00127012       0.04827897
H        2.19265462      -0.40545286       1.06005443      -0.00113933       0.00510843      -0.02065531       0.05753327
H        2.10572213       0.95827765      -1.57284824       0.00635543       0.00876121       0.04122773       0.03864502
H        0.06247682       2.45003203      -2.16059234       0.01341250       0.00672194       0.01586297       0.03855050
H       -2.76103578       0.15767794       0.93738519      -0.00311960       0.00803328      -0.00597604       0.07636457
H       -1.44111869      -0.86825509       1.53764171      -0.00177005       0.00789728       0.00192184       0.06157542
H       -1.39176480       0.89356314       1.79774366       0.00133470       0.00603699      -0.00892662       0.07666041
