17
 xtb: 6.7.1 (edcfbbe)
C            1.53212864753688       -1.07093745888493        0.50743948869275
C            0.64266895381792       -0.30369220856027       -0.43072247308871
C            1.08275494498311        0.72577887314917       -1.32039763895822
C            0.04761958860347        1.59534465872817       -1.53516134561518
N           -1.03535519602363        1.37534244199011       -0.78534532834058
N           -0.82802189842668        0.24811051915475       -0.10996164275973
C           -1.62971423506919        0.09158383972786        1.09899287670446
S           -0.77260719988305       -1.35849533707490       -1.15810272335740
O           -0.96428214553914       -0.96555751912460       -2.53350025065968
H            2.21339412588749       -1.80098464047290       -0.02094878628682
H            0.93698693951065       -1.65396098743053        1.18355855201643
H            2.18647387104446       -0.40410112647868        1.06648172982833
H            2.10127301032994        0.91676382954043       -1.61813186495522
H            0.05922121105750        2.45060919025365       -2.16696152025704
H           -2.74022212362355        0.15915076079399        0.90850989969188
H           -1.43820272246017       -0.87237426106787        1.53973952165631
H           -1.38907828363649        0.89042619716271        1.80126268468419
