20

N     -1.613738    0.933807    0.286004
N     -1.670206   -0.385182    0.398637
C     -2.862684   -1.113739    0.807846
C     -0.513503   -0.938765   -0.013700
C      0.331952    0.082293   -0.386952
S      1.979058   -0.070399   -1.035427
O      1.835313   -1.077061   -2.168790
C      2.888847   -0.952852    0.244406
C     -0.386759    1.243743   -0.178027
C      0.064798    2.633555   -0.483972
H     -3.433213   -1.426856   -0.091337
H     -2.577639   -2.013284    1.393849
H     -3.505636   -0.465834    1.440464
H     -0.309098   -2.001021   -0.055130
H      2.390624   -1.919803    0.464318
H      3.924403   -1.144305   -0.104391
H      2.920522   -0.336555    1.166417
H      0.090110    2.781631   -1.583584
H     -0.633201    3.370125   -0.033535
H      1.080052    2.800503   -0.067095
