17

N     -2.212951    0.615275    0.431927
N     -1.650359    1.750764    0.045767
C     -0.413093    1.511660   -0.426540
C     -0.175932    0.158242   -0.338767
S      1.305335   -0.707001   -0.801676
O      1.583704   -0.225427   -2.219109
C      2.600989    0.046123    0.197627
C     -1.329454   -0.375240    0.199160
C     -1.572105   -1.810029    0.533449
H     -2.111029    2.685108    0.110740
H      0.264199    2.268256   -0.800171
H      3.580392   -0.400676   -0.070384
H      2.633495    1.139964    0.013190
H      2.394398   -0.140552    1.271598
H     -0.920926   -2.108806    1.381138
H     -1.342708   -2.445177   -0.347602
H     -2.633953   -1.962485    0.819655
