20

C     -2.602008    0.728582    1.202403
N     -1.339608    0.969497    0.512419
N     -0.836567    2.178670    0.313712
C      0.317773    2.038442   -0.367339
C      0.547792    0.698649   -0.603448
S      1.928245    0.028994   -1.506208
O      1.340380   -1.106375   -2.333281
C      2.962540   -0.774837   -0.268414
C     -0.518434    0.037856   -0.018026
C     -0.816239   -1.431151   -0.078847
H     -2.413156    0.175094    2.146008
H     -3.279336    0.134868    0.553006
H     -3.096856    1.692754    1.445807
H      0.945791    2.861793   -0.680066
H      3.363613   -0.009688    0.427613
H      3.807197   -1.288430   -0.771837
H      2.373837   -1.517253    0.306407
H     -1.365598   -1.750954    0.830370
H      0.118114   -2.022827   -0.136976
H     -1.437478   -1.643683   -0.973305
