17

N     -2.114613    0.224391    0.855728
N     -2.071324    1.547852    0.851529
C     -0.959391    1.925347    0.189307
C     -0.282312    0.802204   -0.237331
S      1.225139    0.788842   -1.183394
O      1.063478   -0.372223   -2.155185
C      2.502586    0.256125   -0.029644
C     -1.039210   -0.263747    0.210995
C     -0.811878   -1.717172   -0.058561
H     -2.884152   -0.334178    1.287072
H     -0.667014    2.953340    0.022281
H      2.242285   -0.728579    0.407167
H      3.470669    0.173769   -0.565073
H      2.598107    1.003904    0.784308
H     -1.100885   -1.949411   -1.104462
H     -1.426003   -2.333745    0.630671
H      0.254518   -1.976718    0.094592
