      -----------------------------------------------------------      
     |                   =====================                   |     
     |                           x T B                           |     
     |                   =====================                   |     
     |                         S. Grimme                         |     
     |          Mulliken Center for Theoretical Chemistry        |     
     |                    University of Bonn                     |     
      -----------------------------------------------------------      

   * xtb version 6.7.1 (edcfbbe) compiled by 'conda@3ef47c1a292c' on 2024-11-25

   xtb is free software: you can redistribute it and/or modify it under
   the terms of the GNU Lesser General Public License as published by
   the Free Software Foundation, either version 3 of the License, or
   (at your option) any later version.
   
   xtb is distributed in the hope that it will be useful,
   but WITHOUT ANY WARRANTY; without even the implied warranty of
   MERCHANTABILITY or FITNESS FOR A PARTICULAR PURPOSE.  See the
   GNU Lesser General Public License for more details.
   
   Cite this work as:
   * C. Bannwarth, E. Caldeweyher, S. Ehlert, A. Hansen, P. Pracht,
     J. Seibert, S. Spicher, S. Grimme, WIREs Comput. Mol. Sci., 2020, 11,
     e01493. DOI: 10.1002/wcms.1493
   
   for GFN2-xTB:
   * C. Bannwarth, S. Ehlert and S. Grimme., J. Chem. Theory Comput., 2019,
     15, 1652-1671. DOI: 10.1021/acs.jctc.8b01176
   for GFN1-xTB:
   * S. Grimme, C. Bannwarth, P. Shushkov, J. Chem. Theory Comput., 2017,
     13, 1989-2009. DOI: 10.1021/acs.jctc.7b00118
   for GFN0-xTB:
   * P. Pracht, E. Caldeweyher, S. Ehlert, S. Grimme, ChemRxiv, 2019, preprint.
     DOI: 10.26434/chemrxiv.8326202.v1
   for GFN-FF:
   * S. Spicher and S. Grimme, Angew. Chem. Int. Ed., 2020, 59, 15665-15673.
     DOI: 10.1002/anie.202004239
   
   for ALPB and GBSA implicit solvation:
   * S. Ehlert, M. Stahn, S. Spicher, S. Grimme, J. Chem. Theory Comput.,
     2021, 17, 4250-4261. DOI: 10.1021/acs.jctc.1c00471
   
   for ddCOSMO and CPCM-X implicit solvation:
   * M. Stahn, S. Ehlert, S. Grimme, J. Phys. Chem. A,
     2023, XX, XXXX-XXXX. DOI: 10.1021/acs.jpca.3c04382
   
   for DFT-D4:
   * E. Caldeweyher, C. Bannwarth and S. Grimme, J. Chem. Phys., 2017,
     147, 034112. DOI: 10.1063/1.4993215
   * E. Caldeweyher, S. Ehlert, A. Hansen, H. Neugebauer, S. Spicher,
     C. Bannwarth and S. Grimme, J. Chem. Phys., 2019, 150, 154122.
     DOI: 10.1063/1.5090222
   * E. Caldeweyher, J.-M. Mewes, S. Ehlert and S. Grimme, Phys. Chem. Chem. Phys.
     2020, 22, 8499-8512. DOI: 10.1039/D0CP00502A
   
   for sTDA-xTB:
   * S. Grimme and C. Bannwarth, J. Chem. Phys., 2016, 145, 054103.
     DOI: 10.1063/1.4959605
   
   in the mass-spec context:
   * V. Asgeirsson, C. Bauer and S. Grimme, Chem. Sci., 2017, 8, 4879.
     DOI: 10.1039/c7sc00601b
   * J. Koopman and S. Grimme, ACS Omega 2019, 4, 12, 15120-15133.
     DOI: 10.1021/acsomega.9b02011
   
   for metadynamics refer to:
   * S. Grimme, J. Chem. Theory Comput., 2019, 155, 2847-2862
     DOI: 10.1021/acs.jctc.9b00143
   
   for SPH calculations refer to:
   * S. Spicher and S. Grimme, J. Chem. Theory Comput., 2021, 17, 1701-1714
     DOI: 10.1021/acs.jctc.0c01306
   
   for ONIOM refer to:
   * C. Plett, A. Katbashev, S. Ehlert, S. Grimme, M. Bursch,
     Phys. Chem. Chem. Phys., 2023, 25, 17860-17868. DOI: 10.1039/D3CP02178E
   
   for DIPRO refer to:
   * J. Kohn, N. Gildemeister, S. Grimme, D. Fazzi, A. Hansen,
     J. Chem. Phys., 2023, just accepted.
   
   for PTB refer to:
   * S. Grimme, M. Mueller, A. Hansen, J. Chem. Phys., 2023, 158, 124111.
     DOI: 10.1063/5.0137838
   
   with help from (in alphabetical order)
   P. Atkinson, C. Bannwarth, F. Bohle, G. Brandenburg, E. Caldeweyher
   M. Checinski, S. Dohm, S. Ehlert, S. Ehrlich, I. Gerasimov, C. Hölzer
   A. Katbashev, J. Kohn, J. Koopman, C. Lavigne, S. Lehtola, F. März, M. Müller,
   F. Musil, H. Neugebauer, J. Pisarek, C. Plett, P. Pracht, F. Pultar,
   J. Seibert, P. Shushkov, S. Spicher, M. Stahn, M. Steiner, T. Strunk,
   J. Stückrath, T. Rose, and J. Unsleber
   
 * started run on 2026/08/20 at 02:34:21.592     
   ID    Z sym.   atoms
    1    6 C      1-4, 7
    2    7 N      5, 6
    3    1 H      8-15

           -------------------------------------------------
          |                Calculation Setup                |
           -------------------------------------------------

          program call               : /h/399/yunhengzou/micromamba/envs/el-agente/bin/xtb prodA_py.xyz --opt --gfn 2 -P 4 --chrg 0 --uhf 0
          coordinate file            : prodA_py.xyz
          omp threads                :                     4


           -------------------------------------------------
          |                 G F N 2 - x T B                 |
           -------------------------------------------------

        Reference                      10.1021/acs.jctc.8b01176
      * Hamiltonian:
        H0-scaling (s, p, d)           1.850000    2.230000    2.230000
        zeta-weighting                 0.500000
      * Dispersion:
        s8                             2.700000
        a1                             0.520000
        a2                             5.000000
        s9                             5.000000
      * Repulsion:
        kExp                           1.500000    1.000000
        rExp                           1.000000
      * Coulomb:
        alpha                          2.000000
        third order                    shell-resolved
        anisotropic                    true
        a3                             3.000000
        a5                             4.000000
        cn-shift                       1.200000
        cn-exp                         4.000000
        max-rad                        5.000000


          ...................................................
          :                      SETUP                      :
          :.................................................:
          :  # basis functions                  36          :
          :  # atomic orbitals                  36          :
          :  # shells                           22          :
          :  # electrons                        38          :
          :  max. iterations                   250          :
          :  Hamiltonian                  GFN2-xTB          :
          :  restarted?                      false          :
          :  GBSA solvation                  false          :
          :  PC potential                    false          :
          :  electronic temp.          300.0000000     K    :
          :  accuracy                    1.0000000          :
          :  -> integral cutoff          0.2500000E+02      :
          :  -> integral neglect         0.1000000E-07      :
          :  -> SCF convergence          0.1000000E-05 Eh   :
          :  -> wf. convergence          0.1000000E-03 e    :
          :  Broyden damping             0.4000000          :
          :  net charge                          0          :
          :  unpaired electrons                  0          :
          ...................................................

 iter      E             dE          RMSdq      gap      omega  full diag
   1    -20.8445246 -0.208445E+02  0.309E+00    5.23       0.0  T
   2    -20.8922673 -0.477427E-01  0.240E+00    4.81       1.0  T
   3    -20.9012286 -0.896134E-02  0.130E+00    4.87       1.0  T
   4    -20.9012715 -0.429089E-04  0.385E-01    4.82       1.0  T
   5    -20.9021424 -0.870896E-03  0.871E-02    4.79       1.0  T
   6    -20.9021574 -0.149654E-04  0.407E-02    4.77       1.0  T
   7    -20.9021653 -0.789302E-05  0.207E-02    4.78       1.2  T
   8    -20.9021658 -0.472673E-06  0.506E-03    4.78       5.1  T
   9    -20.9021660 -0.225570E-06  0.126E-03    4.78      20.4  T
  10    -20.9021660 -0.487243E-08  0.543E-04    4.78      47.6  T
  11    -20.9021660 -0.196614E-09  0.185E-04    4.78     139.3  T

   *** convergence criteria satisfied after 11 iterations ***

         #    Occupation            Energy/Eh            Energy/eV
      -------------------------------------------------------------
         1        2.0000           -0.6809947             -18.5308
       ...           ...                  ...                  ...
        13        2.0000           -0.4799479             -13.0600
        14        2.0000           -0.4741707             -12.9028
        15        2.0000           -0.4610159             -12.5449
        16        2.0000           -0.4391851             -11.9508
        17        2.0000           -0.3911360             -10.6434
        18        2.0000           -0.3777064             -10.2779
        19        2.0000           -0.3749816             -10.2038 (HOMO)
        20                         -0.1994180              -5.4264 (LUMO)
        21                         -0.1437773              -3.9124
        22                         -0.0116251              -0.3163
        23                          0.0870935               2.3699
        24                          0.1038433               2.8257
       ...                                ...                  ...
        36                          0.6705215              18.2458
      -------------------------------------------------------------
                  HL-Gap            0.1755635 Eh            4.7773 eV
             Fermi-level           -0.2871998 Eh           -7.8151 eV

 SCC (total)                   0 d,  0 h,  0 min,  4.872 sec
 SCC setup                      ...        0 min,  0.027 sec (  0.555%)
 Dispersion                     ...        0 min,  0.117 sec (  2.411%)
 classical contributions        ...        0 min,  0.072 sec (  1.477%)
 integral evaluation            ...        0 min,  0.044 sec (  0.895%)
 iterations                     ...        0 min,  4.262 sec ( 87.467%)
 molecular gradient             ...        0 min,  0.350 sec (  7.193%)
 printout                       ...        0 min,  0.000 sec (  0.002%)

         :::::::::::::::::::::::::::::::::::::::::::::::::::::
         ::                     SUMMARY                     ::
         :::::::::::::::::::::::::::::::::::::::::::::::::::::
         :: total energy             -20.618524365153 Eh    ::
         :: gradient norm              0.058449435064 Eh/a0 ::
         :: HOMO-LUMO gap              4.777327024799 eV    ::
         ::.................................................::
         :: SCC energy               -20.902142086489 Eh    ::
         :: -> isotropic ES            0.011661435663 Eh    ::
         :: -> anisotropic ES          0.003509110283 Eh    ::
         :: -> anisotropic XC          0.018214396096 Eh    ::
         :: -> dispersion             -0.010062151487 Eh    ::
         :: repulsion energy           0.283617721336 Eh    ::
         :: add. restraining           0.000000000000 Eh    ::
         :: total charge              -0.000000000000 e     ::
         :::::::::::::::::::::::::::::::::::::::::::::::::::::

      ----------------------------------------------------------- 
     |                   =====================                   |
     |                        A N C O P T                        |
     |                   =====================                   |
     |               Approximate Normal Coordinate               |
     |                Rational Function Optimizer                |
      ----------------------------------------------------------- 
      ----------------------------------------------------------- 
     |                   =====================                   |
     |                        A N C O P T                        |
     |                   =====================                   |
     |               Approximate Normal Coordinate               |
     |                Rational Function Optimizer                |
      ----------------------------------------------------------- 

          ...................................................
          :                      SETUP                      :
          :.................................................:
          :   optimization level            normal          :
          :   max. optcycles                   200          :
          :   ANC micro-cycles                  20          :
          :   degrees of freedom                39          :
          :.................................................:
          :   RF solver                   davidson          :
          :   write xtbopt.log                true          :
          :   linear?                        false          :
          :   energy convergence         0.5000000E-05 Eh   :
          :   grad. convergence          0.1000000E-02 Eh/α :
          :   maxmium RF displ.          1.0000000          :
          :   Hlow (freq-cutoff)         0.1000000E-01      :
          :   Hmax (freq-cutoff)         5.0000000          :
          :   S6 in model hess.         20.0000000          :
          ...................................................

generating ANC from exact Hessian ...
Using Lindh-Hessian (1995)
 Shifting diagonal of input Hessian by    3.8736569990286008E-003
 Lowest  eigenvalues of input Hessian
    0.000000    0.000000    0.000000    0.000000    0.000000    0.000000
    0.010000    0.012504    0.015188    0.016309    0.018025    0.034415
    0.046621    0.051007    0.059918    0.060598    0.073011    0.089269
 Highest eigenvalues
    1.192975    1.555435    1.842358    1.855583    2.025206    2.078432


........................................................................
.............................. CYCLE    1 ..............................
........................................................................

 iter      E             dE          RMSdq      gap      omega  full diag
   1    -20.9021660 -0.209022E+02  0.434E-05    4.78       0.0  T
   2    -20.9021660 -0.193978E-11  0.244E-05    4.78    1057.8  T
   3    -20.9021660 -0.390799E-13  0.972E-06    4.78    2656.7  T
     SCC iter.                  ...        0 min,  0.602 sec
     gradient                   ...        0 min,  0.311 sec
 * total energy  :   -20.6185244 Eh     change       -0.1621601E-09 Eh
   gradient norm :     0.0584472 Eh/α   predicted     0.0000000E+00 (-100.00%)
   displ. norm   :     0.2636548 α      lambda       -0.8684931E-02
   maximum displ.:     0.1443324 α      in ANC's #6, #8, #10, ...

........................................................................
.............................. CYCLE    2 ..............................
........................................................................

 iter      E             dE          RMSdq      gap      omega  full diag
   1    -20.9242302 -0.209242E+02  0.314E-01    4.86       0.0  T
   2    -20.9243313 -0.101057E-03  0.181E-01    4.90       1.0  T
   3    -20.9243231  0.816732E-05  0.577E-02    4.88       1.0  T
   4    -20.9243460 -0.228860E-04  0.141E-02    4.89       1.8  T
   5    -20.9243470 -0.981917E-06  0.637E-03    4.89       4.1  T
   6    -20.9243470  0.126945E-07  0.194E-03    4.89      13.3  T
   7    -20.9243470 -0.398727E-07  0.548E-04    4.89      47.1  T
   8    -20.9243470 -0.916671E-10  0.213E-04    4.89     121.1  T
     SCC iter.                  ...        0 min,  2.604 sec
     gradient                   ...        0 min,  0.294 sec
 * total energy  :   -20.6240609 Eh     change       -0.5536524E-02 Eh
   gradient norm :     0.0168699 Eh/α   predicted    -0.4644328E-02 ( -16.11%)
   displ. norm   :     0.1537294 α      lambda       -0.1204099E-02
   maximum displ.:     0.1169190 α      in ANC's #6, #10, #3, ...

........................................................................
.............................. CYCLE    3 ..............................
........................................................................

 iter      E             dE          RMSdq      gap      omega  full diag
   1    -20.9305838 -0.209306E+02  0.130E-01    4.92       0.0  T
   2    -20.9305989 -0.150599E-04  0.765E-02    4.94       1.0  T
   3    -20.9305967  0.214705E-05  0.244E-02    4.94       1.1  T
   4    -20.9306012 -0.452373E-05  0.576E-03    4.94       4.5  T
   5    -20.9306014 -0.169270E-06  0.235E-03    4.94      11.0  T
   6    -20.9306014  0.754838E-09  0.764E-04    4.94      33.8  T
   7    -20.9306014 -0.429656E-08  0.200E-04    4.94     129.4  T
     SCC iter.                  ...        0 min,  1.925 sec
     gradient                   ...        0 min,  0.283 sec
 * total energy  :   -20.6247434 Eh     change       -0.6824639E-03 Eh
   gradient norm :     0.0054804 Eh/α   predicted    -0.6162792E-03 (  -9.70%)
   displ. norm   :     0.0711930 α      lambda       -0.1370391E-03
   maximum displ.:     0.0571435 α      in ANC's #6, #3, #1, ...

........................................................................
.............................. CYCLE    4 ..............................
........................................................................

 iter      E             dE          RMSdq      gap      omega  full diag
   1    -20.9301938 -0.209302E+02  0.372E-02    4.94       0.0  T
   2    -20.9301944 -0.592399E-06  0.207E-02    4.94       1.2  T
   3    -20.9301943  0.775968E-07  0.566E-03    4.94       4.6  T
   4    -20.9301945 -0.177594E-06  0.130E-03    4.94      19.9  T
   5    -20.9301945 -0.826906E-08  0.565E-04    4.94      45.7  T
   6    -20.9301945 -0.138758E-09  0.155E-04    4.94     166.4  T
     SCC iter.                  ...        0 min,  2.252 sec
     gradient                   ...        0 min,  0.296 sec
 * total energy  :   -20.6248400 Eh     change       -0.9659946E-04 Eh
   gradient norm :     0.0039162 Eh/α   predicted    -0.6886823E-04 ( -28.71%)
   displ. norm   :     0.0583019 α      lambda       -0.5745168E-04
   maximum displ.:     0.0371013 α      in ANC's #6, #1, #3, ...

........................................................................
.............................. CYCLE    5 ..............................
........................................................................

 iter      E             dE          RMSdq      gap      omega  full diag
   1    -20.9296334 -0.209296E+02  0.273E-02    4.94       0.0  T
   2    -20.9296342 -0.776515E-06  0.148E-02    4.93       1.7  T
   3    -20.9296341  0.555433E-07  0.670E-03    4.94       3.9  T
   4    -20.9296344 -0.251091E-06  0.987E-04    4.94      26.2  T
   5    -20.9296344 -0.719549E-09  0.440E-04    4.94      58.7  T
     SCC iter.                  ...        0 min,  0.964 sec
     gradient                   ...        0 min,  0.280 sec
 * total energy  :   -20.6248717 Eh     change       -0.3172876E-04 Eh
   gradient norm :     0.0010871 Eh/α   predicted    -0.2882428E-04 (  -9.15%)
   displ. norm   :     0.0285451 α      lambda       -0.4697419E-05
   maximum displ.:     0.0216796 α      in ANC's #1, #4, #2, ...

........................................................................
.............................. CYCLE    6 ..............................
........................................................................

 iter      E             dE          RMSdq      gap      omega  full diag
   1    -20.9297434 -0.209297E+02  0.916E-03    4.93       0.0  T
   2    -20.9297435 -0.972783E-07  0.552E-03    4.93       4.7  T
   3    -20.9297435  0.835882E-08  0.245E-03    4.93      10.5  T
   4    -20.9297435 -0.341377E-07  0.278E-04    4.93      92.9  T
   5    -20.9297435 -0.135778E-09  0.145E-04    4.93     178.3  T
     SCC iter.                  ...        0 min,  1.401 sec
     gradient                   ...        0 min,  0.306 sec
 * total energy  :   -20.6248770 Eh     change       -0.5320119E-05 Eh
   gradient norm :     0.0006608 Eh/α   predicted    -0.2350473E-05 ( -55.82%)
   displ. norm   :     0.0525214 α      lambda       -0.6646154E-05
   maximum displ.:     0.0360334 α      in ANC's #1, #4, #2, ...

........................................................................
.............................. CYCLE    7 ..............................
........................................................................

 iter      E             dE          RMSdq      gap      omega  full diag
   1    -20.9298939 -0.209299E+02  0.153E-02    4.93       0.0  T
   2    -20.9298939 -0.353945E-07  0.916E-03    4.93       2.8  T
   3    -20.9298939  0.349366E-07  0.202E-03    4.93      12.8  T
   4    -20.9298939 -0.464205E-07  0.316E-04    4.93      81.7  T
   5    -20.9298939 -0.147530E-09  0.159E-04    4.93     162.2  T
     SCC iter.                  ...        0 min,  2.439 sec
     gradient                   ...        0 min,  0.383 sec
 * total energy  :   -20.6248853 Eh     change       -0.8337713E-05 Eh
   gradient norm :     0.0014039 Eh/α   predicted    -0.3325579E-05 ( -60.11%)
   displ. norm   :     0.1091611 α      lambda       -0.1137569E-04
   maximum displ.:     0.0777993 α      in ANC's #1, #4, #2, ...

........................................................................
.............................. CYCLE    8 ..............................
........................................................................

 iter      E             dE          RMSdq      gap      omega  full diag
   1    -20.9297066 -0.209297E+02  0.294E-02    4.93       0.0  T
   2    -20.9297067 -0.500362E-07  0.176E-02    4.93       1.5  T
   3    -20.9297066  0.855615E-08  0.171E-03    4.93      15.1  T
   4    -20.9297067 -0.264201E-07  0.593E-04    4.93      43.5  T
   5    -20.9297067 -0.682952E-09  0.203E-04    4.93     127.3  T
     SCC iter.                  ...        0 min,  2.263 sec
     gradient                   ...        0 min,  0.357 sec
 * total energy  :   -20.6248984 Eh     change       -0.1305587E-04 Eh
   gradient norm :     0.0016298 Eh/α   predicted    -0.5717564E-05 ( -56.21%)
   displ. norm   :     0.0906765 α      lambda       -0.7660943E-05
   maximum displ.:     0.0670213 α      in ANC's #1, #4, #5, ...

........................................................................
.............................. CYCLE    9 ..............................
........................................................................

 iter      E             dE          RMSdq      gap      omega  full diag
   1    -20.9297235 -0.209297E+02  0.240E-02    4.93       0.0  T
   2    -20.9297236 -0.505213E-07  0.145E-02    4.93       1.8  T
   3    -20.9297235  0.392217E-07  0.202E-03    4.93      12.8  T
   4    -20.9297236 -0.554278E-07  0.372E-04    4.93      69.4  T
   5    -20.9297236 -0.560441E-10  0.115E-04    4.93     224.1  T
     SCC iter.                  ...        0 min,  2.424 sec
     gradient                   ...        0 min,  0.392 sec
 * total energy  :   -20.6249064 Eh     change       -0.8037588E-05 Eh
   gradient norm :     0.0008299 Eh/α   predicted    -0.3843411E-05 ( -52.18%)
   displ. norm   :     0.0525296 α      lambda       -0.3312195E-05
   maximum displ.:     0.0428488 α      in ANC's #1, #4, #5, ...

........................................................................
.............................. CYCLE   10 ..............................
........................................................................

 iter      E             dE          RMSdq      gap      omega  full diag
   1    -20.9298427 -0.209298E+02  0.144E-02    4.94       0.0  T
   2    -20.9298427 -0.288405E-07  0.861E-03    4.94       3.0  T
   3    -20.9298427  0.234843E-07  0.170E-03    4.94      15.2  T
   4    -20.9298428 -0.328774E-07  0.329E-04    4.94      78.4  T
   5    -20.9298428 -0.747669E-10  0.156E-04    4.94     165.8  T
     SCC iter.                  ...        0 min,  1.910 sec
     gradient                   ...        0 min,  0.413 sec
 * total energy  :   -20.6249094 Eh     change       -0.2924543E-05 Eh
   gradient norm :     0.0004138 Eh/α   predicted    -0.1658819E-05 ( -43.28%)
   displ. norm   :     0.0277378 α      lambda       -0.1385046E-05
   maximum displ.:     0.0231712 α      in ANC's #1, #4, #5, ...

   *** GEOMETRY OPTIMIZATION CONVERGED AFTER 10 ITERATIONS ***

------------------------------------------------------------------------
 total energy gain   :        -0.0063850 Eh       -4.0066 kcal/mol
 total RMSD          :         0.1639105 a0        0.0867 Å
 total power (kW/mol):        -1.6763795 (step)   -0.6659 (real)
------------------------------------------------------------------------

 ANCopt (total)                0 d,  0 h,  0 min, 25.175 sec
 optimizer setup                ...        0 min,  0.000 sec (  0.001%)
 model hessian                  ...        0 min,  0.003 sec (  0.010%)
 ANC generation                 ...        0 min,  0.000 sec (  0.001%)
 coordinate transformation      ...        0 min,  0.000 sec (  0.000%)
 single point calculation       ...        0 min, 24.802 sec ( 98.518%)
 optimization log               ...        0 min,  0.001 sec (  0.003%)
 hessian update                 ...        0 min,  0.355 sec (  1.409%)
 rational function              ...        0 min,  0.013 sec (  0.051%)

================
 final structure:
================
15
 xtb: 6.7.1 (edcfbbe)
C           -0.84479365788778        1.57693188559446        0.09840730410037
C            0.23674187156446        0.55982364670336        0.09225456172211
C            1.60228411719768        0.67843084434837        0.25011938339998
C            2.09036662914910       -0.62935171257125        0.14383880958749
N            1.10755952512915       -1.48352173665943       -0.06445450431901
N           -0.00855360971894       -0.75823576219597       -0.09392559991365
C           -1.27928475387162       -1.38677851510323       -0.29806867776697
H           -1.37245469642777        1.58628556300189       -0.85607858734014
H           -0.42152017754599        2.56231490319588        0.27154908444340
H           -1.57186758081149        1.36548416320307        0.88326836490846
H            2.16251914140672        1.57537224487444        0.41801886859038
H            3.10303298369791       -0.97426804091144        0.20846337475244
H           -1.76962578393217       -0.99013029891482       -1.18991936871647
H           -1.93302846121675       -1.23012792536645        0.56319745724057
H           -1.10137754673253       -2.45222925919888       -0.42666947068895

 Bond Distances (Angstroems)
 ---------------------------
C1-C2=1.4847         C1-H8=1.0907         C1-H9=1.0863         C1-H10=1.0906        C2-C1=1.4847         C2-C3=1.3797         
C2-N6=1.3536         C3-C2=1.3797         C3-C4=1.3999         C3-H11=1.0708        C4-C3=1.3999         C4-N5=1.3187         
C4-H12=1.0717        N5-C4=1.3187         N5-N6=1.3314         N6-C2=1.3536         N6-N5=1.3314         N6-C7=1.4323         
C7-N6=1.4323         C7-H13=1.0923        C7-H14=1.0926        C7-H15=1.0878        H8-C1=1.0907         H9-C1=1.0863         
H10-C1=1.0906        H11-C3=1.0708        H12-C4=1.0717        H13-C7=1.0923        H14-C7=1.0926        H15-C7=1.0878        
 C  H  Rav=1.0854 sigma=0.0084  Rmin=1.0708  Rmax=1.0926     8
 C  C  Rav=1.4215 sigma=0.0455  Rmin=1.3797  Rmax=1.4847     3
 N  C  Rav=1.3682 sigma=0.0475  Rmin=1.3187  Rmax=1.4323     3
 N  N  Rav=1.3314 sigma=0.0000  Rmin=1.3314  Rmax=1.3314     1

 selected bond angles (degree)
 --------------------
H8-C1-C2=110.77                H9-C1-C2=109.77                H9-C1-H8=108.68                H10-C1-C2=110.84               
H10-C1-H8=108.00               H10-C1-H9=108.72               C3-C2-C1=131.42                N6-C2-C1=122.39                
N6-C2-C3=106.19                C4-C3-C2=104.84                H11-C3-C2=127.43               H11-C3-C4=127.73               
N5-C4-C3=110.93                H12-C4-C3=128.72               H12-C4-N5=120.35               N6-N5-C4=105.99                
N5-N6-C2=112.06                C7-N6-C2=127.42                C7-N6-N5=120.52                H13-C7-N6=110.81               
H14-C7-N6=110.83               H14-C7-H13=108.84              H15-C7-N6=107.55               H15-C7-H13=109.42              
H15-C7-H14=109.36              

 selected dihedral angles (degree)
 ---------------------------------
C3-C2-C1-H8=119.34            C3-C2-C1-H9=359.32            C3-C2-C1-H10=239.21           N6-C2-C1-H8=299.57            
N6-C2-C1-H9=179.56            N6-C2-C1-H10= 59.44           C4-C3-C2-C1=180.14            C4-C3-C2-N6=359.93            
H11-C3-C2-C1=  0.20           H11-C3-C2-N6=179.99           N5-C4-C3-C2=  0.09            N5-C4-C3-H11=180.03           
H12-C4-C3-C2=179.98           H12-C4-C3-H11=359.92          N6-N5-C4-C3=359.92            N6-N5-C4-H12=180.02           
N5-N6-C2-C1=179.84            N5-N6-C2-C3=  0.02            C7-N6-C2-C1=359.53            C7-N6-C2-C3=179.71            
C2-N6-N5-C4=  0.03            C7-N6-N5-C4=180.32            H13-C7-N6-C2= 59.58           H13-C7-N6-N5=239.25           
H14-C7-N6-C2=298.63           H14-C7-N6-N5=118.30           H15-C7-N6-C2=179.14           H15-C7-N6-N5=358.81           
           -------------------------------------------------
          |                Final Singlepoint                |
           -------------------------------------------------

          ...................................................
          :                      SETUP                      :
          :.................................................:
          :  # basis functions                  36          :
          :  # atomic orbitals                  36          :
          :  # shells                           22          :
          :  # electrons                        38          :
          :  max. iterations                   250          :
          :  Hamiltonian                  GFN2-xTB          :
          :  restarted?                      false          :
          :  GBSA solvation                  false          :
          :  PC potential                    false          :
          :  electronic temp.          300.0000000     K    :
          :  accuracy                    1.0000000          :
          :  -> integral cutoff          0.2500000E+02      :
          :  -> integral neglect         0.1000000E-07      :
          :  -> SCF convergence          0.1000000E-05 Eh   :
          :  -> wf. convergence          0.1000000E-03 e    :
          :  Broyden damping             0.4000000          :
          :  net charge                          0          :
          :  unpaired electrons                  0          :
          ...................................................

 iter      E             dE          RMSdq      gap      omega  full diag
   1    -20.9298428 -0.209298E+02  0.356E-05    4.94       0.0  T
   2    -20.9298428 -0.711253E-11  0.215E-05    4.94    1202.3  T
   3    -20.9298428 -0.371969E-11  0.103E-05    4.94    2509.4  T

   *** convergence criteria satisfied after 3 iterations ***

         #    Occupation            Energy/Eh            Energy/eV
      -------------------------------------------------------------
         1        2.0000           -0.6804097             -18.5149
       ...           ...                  ...                  ...
        13        2.0000           -0.4801974             -13.0668
        14        2.0000           -0.4722355             -12.8502
        15        2.0000           -0.4600258             -12.5179
        16        2.0000           -0.4444449             -12.0940
        17        2.0000           -0.3870315             -10.5317
        18        2.0000           -0.3821442             -10.3987
        19        2.0000           -0.3793002             -10.3213 (HOMO)
        20                         -0.1979156              -5.3856 (LUMO)
        21                         -0.1448859              -3.9425
        22                          0.0134438               0.3658
        23                          0.1084981               2.9524
        24                          0.1199384               3.2637
       ...                                ...                  ...
        36                          0.6772517              18.4290
      -------------------------------------------------------------
                  HL-Gap            0.1813846 Eh            4.9357 eV
             Fermi-level           -0.2886079 Eh           -7.8534 eV

 SCC (total)                   0 d,  0 h,  0 min,  1.718 sec
 SCC setup                      ...        0 min,  0.021 sec (  1.214%)
 Dispersion                     ...        0 min,  0.060 sec (  3.504%)
 classical contributions        ...        0 min,  0.045 sec (  2.614%)
 integral evaluation            ...        0 min,  0.122 sec (  7.081%)
 iterations                     ...        0 min,  1.224 sec ( 71.230%)
 molecular gradient             ...        0 min,  0.247 sec ( 14.349%)
 printout                       ...        0 min,  0.000 sec (  0.008%)

         :::::::::::::::::::::::::::::::::::::::::::::::::::::
         ::                     SUMMARY                     ::
         :::::::::::::::::::::::::::::::::::::::::::::::::::::
         :: total energy             -20.624909357639 Eh    ::
         :: gradient norm              0.000413554311 Eh/a0 ::
         :: HOMO-LUMO gap              4.935725963406 eV    ::
         ::.................................................::
         :: SCC energy               -20.929819390444 Eh    ::
         :: -> isotropic ES            0.011359022583 Eh    ::
         :: -> anisotropic ES          0.002608836629 Eh    ::
         :: -> anisotropic XC          0.016842016697 Eh    ::
         :: -> dispersion             -0.010116221977 Eh    ::
         :: repulsion energy           0.304910032805 Eh    ::
         :: add. restraining           0.000000000000 Eh    ::
         :: total charge              -0.000000000000 e     ::
         :::::::::::::::::::::::::::::::::::::::::::::::::::::

           -------------------------------------------------
          |                Property Printout                |
           -------------------------------------------------

    * Orbital Energies and Occupations

         #    Occupation            Energy/Eh            Energy/eV
      -------------------------------------------------------------
         1        2.0000           -0.6804097             -18.5149
       ...           ...                  ...                  ...
         7        2.0000           -0.5507833             -14.9876
         8        2.0000           -0.5503105             -14.9747
         9        2.0000           -0.5249498             -14.2846
        10        2.0000           -0.4961154             -13.5000
        11        2.0000           -0.4957279             -13.4894
        12        2.0000           -0.4860487             -13.2261
        13        2.0000           -0.4801974             -13.0668
        14        2.0000           -0.4722355             -12.8502
        15        2.0000           -0.4600258             -12.5179
        16        2.0000           -0.4444449             -12.0940
        17        2.0000           -0.3870315             -10.5317
        18        2.0000           -0.3821442             -10.3987
        19        2.0000           -0.3793002             -10.3213 (HOMO)
        20                         -0.1979156              -5.3856 (LUMO)
        21                         -0.1448859              -3.9425
        22                          0.0134438               0.3658
        23                          0.1084981               2.9524
        24                          0.1199384               3.2637
        25                          0.1366939               3.7196
        26                          0.1603829               4.3642
        27                          0.1801879               4.9032
        28                          0.1809794               4.9247
        29                          0.1945660               5.2944
        30                          0.2252413               6.1291
       ...                                ...                  ...
        36                          0.6772517              18.4290
      -------------------------------------------------------------
                  HL-Gap            0.1813846 Eh            4.9357 eV
             Fermi-level           -0.2886079 Eh           -7.8534 eV

     #   Z          covCN         q      C6AA      α(0)
     1   6 C        3.754    -0.108    22.625     6.783
     2   6 C        3.068     0.024    27.400     8.583
     3   6 C        3.025    -0.087    30.147     9.006
     4   6 C        3.117     0.023    27.339     8.564
     5   7 N        2.004    -0.246    27.203     7.736
     6   7 N        3.049     0.076    19.921     6.629
     7   6 C        3.692    -0.059    21.834     6.686
     8   1 H        0.924     0.045     2.385     2.415
     9   1 H        0.925     0.051     2.310     2.377
    10   1 H        0.924     0.045     2.385     2.415
    11   1 H        0.926     0.019     2.751     2.594
    12   1 H        0.926     0.024     2.668     2.554
    13   1 H        0.924     0.056     2.244     2.343
    14   1 H        0.924     0.056     2.246     2.344
    15   1 H        0.925     0.082     1.958     2.188

 Mol. C6AA /au·bohr⁶  :       2236.496306
 Mol. C8AA /au·bohr⁸  :      50360.362372
 Mol. α(0) /au        :         73.217060


Wiberg/Mayer (AO) data.
largest (>0.10) Wiberg bond orders for each atom

 ---------------------------------------------------------------------------
     #   Z sym  total        # sym  WBO       # sym  WBO       # sym  WBO
 ---------------------------------------------------------------------------
     1   6 C    3.997 --     2 C    1.030     9 H    0.984    10 H    0.971
                             8 H    0.971
     2   6 C    3.959 --     3 C    1.475     6 N    1.257     1 C    1.030
                             5 N    0.147
     3   6 C    3.976 --     2 C    1.475     4 C    1.370    11 H    0.975
     4   6 C    3.979 --     5 N    1.508     3 C    1.370    12 H    0.970
     5   7 N    2.961 --     4 C    1.508     6 N    1.199     2 C    0.147
     6   7 N    3.663 --     2 C    1.257     5 N    1.199     7 C    1.007
     7   6 C    3.972 --     6 N    1.007    15 H    0.979    13 H    0.973
                            14 H    0.973
     8   1 H    0.998 --     1 C    0.971
     9   1 H    0.997 --     1 C    0.984
    10   1 H    0.998 --     1 C    0.971
    11   1 H    1.000 --     3 C    0.975
    12   1 H    0.999 --     4 C    0.970
    13   1 H    0.997 --     7 C    0.973
    14   1 H    0.997 --     7 C    0.973
    15   1 H    0.993 --     7 C    0.979
 ---------------------------------------------------------------------------

Topologies differ in total number of bonds
Writing topology from bond orders to xtbtopo.mol

molecular dipole:
                 x           y           z       tot (Debye)
 q only:       -0.997       0.193      -0.081
   full:       -1.054       0.573      -0.040       3.051
molecular quadrupole (traceless):
                xx          xy          yy          xz          yz          zz
 q only:        0.570       2.769       0.122       0.480       0.398      -0.692
  q+dip:        2.011       3.809      -1.302       0.763       0.333      -0.710
   full:        1.798       3.817      -1.943       0.647       0.148       0.144

           -------------------------------------------------
          |                Geometry Summary                 |
           -------------------------------------------------

      molecular mass/u    :       96.1306119
   center of mass at/Å    :        0.3552377      -0.2116727       0.0113816
  moments of inertia/u·Å² :        0.1264542E+03   0.1519681E+03   0.2721003E+03
rotational constants/cm⁻¹ :        0.1333102E+00   0.1109288E+00   0.6195374E-01

 * 15 selected distances

     #   Z          #   Z                                           value/Å
     1   6 C        2   6 C                                       1.4846772 (max)
     2   6 C        3   6 C                                       1.3797445
     3   6 C        4   6 C                                       1.3999342
     4   6 C        5   7 N                                       1.3186746
     2   6 C        6   7 N                                       1.3535560
     5   7 N        6   7 N                                       1.3313967
     6   7 N        7   6 C                                       1.4323053
     1   6 C        8   1 H                                       1.0906682
     1   6 C        9   1 H                                       1.0863326
     1   6 C       10   1 H                                       1.0905750
     3   6 C       11   1 H                                       1.0707743 (min)
     4   6 C       12   1 H                                       1.0717448
     7   6 C       13   1 H                                       1.0923196
     7   6 C       14   1 H                                       1.0925657
     7   6 C       15   1 H                                       1.0878302

 * 4 distinct bonds (by element types)

   Z      Z             #   av. dist./Å        max./Å        min./Å
   1 H    6 C           8     1.0853513     1.0925657     1.0707743
   6 C    6 C           3     1.4214520     1.4846772     1.3797445
   6 C    7 N           3     1.3681786     1.4323053     1.3186746
   7 N    7 N           1     1.3313967     1.3313967     1.3313967


optimized geometry written to: xtbopt.xyz


           -------------------------------------------------
          | TOTAL ENERGY              -20.624909357639 Eh   |
          | GRADIENT NORM               0.000413554311 Eh/α |
          | HOMO-LUMO GAP               4.935725963406 eV   |
           -------------------------------------------------

------------------------------------------------------------------------
 * finished run on 2026/08/20 at 02:34:53.639     
------------------------------------------------------------------------
 total:
 * wall-time:     0 d,  0 h,  0 min, 32.047 sec
 *  cpu-time:     0 d,  0 h,  0 min, 40.405 sec
 * ratio c/w:     1.261 speedup
 SCF:
 * wall-time:     0 d,  0 h,  0 min,  4.873 sec
 *  cpu-time:     0 d,  0 h,  0 min,  6.638 sec
 * ratio c/w:     1.362 speedup
 ANC optimizer:
 * wall-time:     0 d,  0 h,  0 min, 26.923 sec
 *  cpu-time:     0 d,  0 h,  0 min, 33.325 sec
 * ratio c/w:     1.238 speedup

