      -----------------------------------------------------------      
     |                   =====================                   |     
     |                           x T B                           |     
     |                   =====================                   |     
     |                         S. Grimme                         |     
     |          Mulliken Center for Theoretical Chemistry        |     
     |                    University of Bonn                     |     
      -----------------------------------------------------------      

   * xtb version 6.7.1 (edcfbbe) compiled by 'conda@3ef47c1a292c' on 2024-11-25

   xtb is free software: you can redistribute it and/or modify it under
   the terms of the GNU Lesser General Public License as published by
   the Free Software Foundation, either version 3 of the License, or
   (at your option) any later version.
   
   xtb is distributed in the hope that it will be useful,
   but WITHOUT ANY WARRANTY; without even the implied warranty of
   MERCHANTABILITY or FITNESS FOR A PARTICULAR PURPOSE.  See the
   GNU Lesser General Public License for more details.
   
   Cite this work as:
   * C. Bannwarth, E. Caldeweyher, S. Ehlert, A. Hansen, P. Pracht,
     J. Seibert, S. Spicher, S. Grimme, WIREs Comput. Mol. Sci., 2020, 11,
     e01493. DOI: 10.1002/wcms.1493
   
   for GFN2-xTB:
   * C. Bannwarth, S. Ehlert and S. Grimme., J. Chem. Theory Comput., 2019,
     15, 1652-1671. DOI: 10.1021/acs.jctc.8b01176
   for GFN1-xTB:
   * S. Grimme, C. Bannwarth, P. Shushkov, J. Chem. Theory Comput., 2017,
     13, 1989-2009. DOI: 10.1021/acs.jctc.7b00118
   for GFN0-xTB:
   * P. Pracht, E. Caldeweyher, S. Ehlert, S. Grimme, ChemRxiv, 2019, preprint.
     DOI: 10.26434/chemrxiv.8326202.v1
   for GFN-FF:
   * S. Spicher and S. Grimme, Angew. Chem. Int. Ed., 2020, 59, 15665-15673.
     DOI: 10.1002/anie.202004239
   
   for ALPB and GBSA implicit solvation:
   * S. Ehlert, M. Stahn, S. Spicher, S. Grimme, J. Chem. Theory Comput.,
     2021, 17, 4250-4261. DOI: 10.1021/acs.jctc.1c00471
   
   for ddCOSMO and CPCM-X implicit solvation:
   * M. Stahn, S. Ehlert, S. Grimme, J. Phys. Chem. A,
     2023, XX, XXXX-XXXX. DOI: 10.1021/acs.jpca.3c04382
   
   for DFT-D4:
   * E. Caldeweyher, C. Bannwarth and S. Grimme, J. Chem. Phys., 2017,
     147, 034112. DOI: 10.1063/1.4993215
   * E. Caldeweyher, S. Ehlert, A. Hansen, H. Neugebauer, S. Spicher,
     C. Bannwarth and S. Grimme, J. Chem. Phys., 2019, 150, 154122.
     DOI: 10.1063/1.5090222
   * E. Caldeweyher, J.-M. Mewes, S. Ehlert and S. Grimme, Phys. Chem. Chem. Phys.
     2020, 22, 8499-8512. DOI: 10.1039/D0CP00502A
   
   for sTDA-xTB:
   * S. Grimme and C. Bannwarth, J. Chem. Phys., 2016, 145, 054103.
     DOI: 10.1063/1.4959605
   
   in the mass-spec context:
   * V. Asgeirsson, C. Bauer and S. Grimme, Chem. Sci., 2017, 8, 4879.
     DOI: 10.1039/c7sc00601b
   * J. Koopman and S. Grimme, ACS Omega 2019, 4, 12, 15120-15133.
     DOI: 10.1021/acsomega.9b02011
   
   for metadynamics refer to:
   * S. Grimme, J. Chem. Theory Comput., 2019, 155, 2847-2862
     DOI: 10.1021/acs.jctc.9b00143
   
   for SPH calculations refer to:
   * S. Spicher and S. Grimme, J. Chem. Theory Comput., 2021, 17, 1701-1714
     DOI: 10.1021/acs.jctc.0c01306
   
   for ONIOM refer to:
   * C. Plett, A. Katbashev, S. Ehlert, S. Grimme, M. Bursch,
     Phys. Chem. Chem. Phys., 2023, 25, 17860-17868. DOI: 10.1039/D3CP02178E
   
   for DIPRO refer to:
   * J. Kohn, N. Gildemeister, S. Grimme, D. Fazzi, A. Hansen,
     J. Chem. Phys., 2023, just accepted.
   
   for PTB refer to:
   * S. Grimme, M. Mueller, A. Hansen, J. Chem. Phys., 2023, 158, 124111.
     DOI: 10.1063/5.0137838
   
   with help from (in alphabetical order)
   P. Atkinson, C. Bannwarth, F. Bohle, G. Brandenburg, E. Caldeweyher
   M. Checinski, S. Dohm, S. Ehlert, S. Ehrlich, I. Gerasimov, C. Hölzer
   A. Katbashev, J. Kohn, J. Koopman, C. Lavigne, S. Lehtola, F. März, M. Müller,
   F. Musil, H. Neugebauer, J. Pisarek, C. Plett, P. Pracht, F. Pultar,
   J. Seibert, P. Shushkov, S. Spicher, M. Stahn, M. Steiner, T. Strunk,
   J. Stückrath, T. Rose, and J. Unsleber
   
 * started run on 2026/08/20 at 02:39:52.641     
   ID    Z sym.   atoms
    1   16 S      1
    2    8 O      2

           -------------------------------------------------
          |                Calculation Setup                |
           -------------------------------------------------

          program call               : /h/399/yunhengzou/micromamba/envs/el-agente/bin/xtb SO.xyz --opt --gfn 2 -P 4 --chrg 0 --uhf 0
          coordinate file            : SO.xyz
          omp threads                :                     4


           -------------------------------------------------
          |                 G F N 2 - x T B                 |
           -------------------------------------------------

        Reference                      10.1021/acs.jctc.8b01176
      * Hamiltonian:
        H0-scaling (s, p, d)           1.850000    2.230000    2.230000
        zeta-weighting                 0.500000
      * Dispersion:
        s8                             2.700000
        a1                             0.520000
        a2                             5.000000
        s9                             5.000000
      * Repulsion:
        kExp                           1.500000    1.000000
        rExp                           1.000000
      * Coulomb:
        alpha                          2.000000
        third order                    shell-resolved
        anisotropic                    true
        a3                             3.000000
        a5                             4.000000
        cn-shift                       1.200000
        cn-exp                         4.000000
        max-rad                        5.000000


          ...................................................
          :                      SETUP                      :
          :.................................................:
          :  # basis functions                  14          :
          :  # atomic orbitals                  13          :
          :  # shells                            5          :
          :  # electrons                        12          :
          :  max. iterations                   250          :
          :  Hamiltonian                  GFN2-xTB          :
          :  restarted?                      false          :
          :  GBSA solvation                  false          :
          :  PC potential                    false          :
          :  electronic temp.          300.0000000     K    :
          :  accuracy                    1.0000000          :
          :  -> integral cutoff          0.2500000E+02      :
          :  -> integral neglect         0.1000000E-07      :
          :  -> SCF convergence          0.1000000E-05 Eh   :
          :  -> wf. convergence          0.1000000E-03 e    :
          :  Broyden damping             0.4000000          :
          :  net charge                          0          :
          :  unpaired electrons                  0          :
          ...................................................

 iter      E             dE          RMSdq      gap      omega  full diag
   1     -7.2435795 -0.724358E+01  0.720E+00    0.00       0.0  T
   2     -7.2571272 -0.135477E-01  0.258E+00    0.00       1.0  T
   3     -7.2574124 -0.285214E-03  0.141E+00    0.00       1.0  T
   4     -7.2575351 -0.122714E-03  0.226E-01    0.00       1.0  T
   5     -7.2575306  0.445921E-05  0.123E-01    0.00       1.0  T
   6     -7.2575359 -0.522201E-05  0.965E-02    0.00       1.0  T
   7     -7.2575408 -0.496295E-05  0.528E-03    0.00      13.4  T
   8     -7.2575408 -0.201194E-07  0.287E-03    0.00      24.6  T
   9     -7.2575409 -0.586300E-08  0.231E-04    0.00     306.1  T
  10     -7.2575409 -0.512985E-10  0.175E-05    0.00    4039.4  T

   *** convergence criteria satisfied after 10 iterations ***

         #    Occupation            Energy/Eh            Energy/eV
      -------------------------------------------------------------
         1        2.0000           -0.7739408             -21.0600
         2        2.0000           -0.6768984             -18.4193
         3        2.0000           -0.5396550             -14.6848
         4        2.0000           -0.5364671             -14.5980
         5        2.0000           -0.5364671             -14.5980
         6        1.0000           -0.3695874             -10.0570 (HOMO)
         7        1.0000           -0.3695874             -10.0570 (LUMO)
         8                         -0.1733330              -4.7166
         9                         -0.0415955              -1.1319
        10                         -0.0415955              -1.1319
        11                          0.0765887               2.0841
       ...                                ...                  ...
        13                          0.8401175              22.8608
      -------------------------------------------------------------
                  HL-Gap            0.0000000 Eh            0.0000 eV
             Fermi-level           -0.3695874 Eh          -10.0570 eV

 SCC (total)                   0 d,  0 h,  0 min,  1.584 sec
 SCC setup                      ...        0 min,  0.084 sec (  5.308%)
 Dispersion                     ...        0 min,  0.100 sec (  6.312%)
 classical contributions        ...        0 min,  0.028 sec (  1.760%)
 integral evaluation            ...        0 min,  0.052 sec (  3.298%)
 iterations                     ...        0 min,  0.952 sec ( 60.094%)
 molecular gradient             ...        0 min,  0.368 sec ( 23.221%)
 printout                       ...        0 min,  0.000 sec (  0.006%)

         :::::::::::::::::::::::::::::::::::::::::::::::::::::
         ::                     SUMMARY                     ::
         :::::::::::::::::::::::::::::::::::::::::::::::::::::
         :: total energy              -7.237327182401 Eh    ::
         :: gradient norm              0.025518340648 Eh/a0 ::
         :: HOMO-LUMO gap              0.000000041032 eV    ::
         ::.................................................::
         :: SCC energy                -7.257540850698 Eh    ::
         :: -> isotropic ES            0.016524329378 Eh    ::
         :: -> anisotropic ES          0.000125758889 Eh    ::
         :: -> anisotropic XC         -0.000947413159 Eh    ::
         :: -> dispersion             -0.000467210386 Eh    ::
         :: repulsion energy           0.020213668297 Eh    ::
         :: add. restraining           0.000000000000 Eh    ::
         :: total charge               0.000000000000 e     ::
         :::::::::::::::::::::::::::::::::::::::::::::::::::::

      ----------------------------------------------------------- 
     |                   =====================                   |
     |                        A N C O P T                        |
     |                   =====================                   |
     |               Approximate Normal Coordinate               |
     |                Rational Function Optimizer                |
      ----------------------------------------------------------- 
      ----------------------------------------------------------- 
     |                   =====================                   |
     |                        A N C O P T                        |
     |                   =====================                   |
     |               Approximate Normal Coordinate               |
     |                Rational Function Optimizer                |
      ----------------------------------------------------------- 

          ...................................................
          :                      SETUP                      :
          :.................................................:
          :   optimization level            normal          :
          :   max. optcycles                   200          :
          :   ANC micro-cycles                  20          :
          :   degrees of freedom                 1          :
          :.................................................:
          :   RF solver                   davidson          :
          :   write xtbopt.log                true          :
          :   linear (good luck)              true          :
          :   energy convergence         0.5000000E-05 Eh   :
          :   grad. convergence          0.1000000E-02 Eh/α :
          :   maxmium RF displ.          1.0000000          :
          :   Hlow (freq-cutoff)         0.1000000E-01      :
          :   Hmax (freq-cutoff)         5.0000000          :
          :   S6 in model hess.         20.0000000          :
          ...................................................

generating ANC from exact Hessian ...
Using Lindh-Hessian (1995)
 Shifting diagonal of input Hessian by    0.0000000000000000     
 Lowest  eigenvalues of input Hessian
    0.000000    0.000000    0.000000    0.000000    0.000000    2.487782
 Highest eigenvalues
    0.000000    0.000000    0.000000    0.000000    0.000000    2.487782


........................................................................
.............................. CYCLE    1 ..............................
........................................................................

 iter      E             dE          RMSdq      gap      omega  full diag
   1     -7.2575409 -0.725754E+01  0.143E-05    0.00       0.0  T
   2     -7.2575409 -0.178524E-12  0.147E-05    0.00    4803.6  T
   3     -7.2575409  0.000000E+00  0.167E-05    0.00    4246.3  T
     SCC iter.                  ...        0 min,  0.318 sec
     gradient                   ...        0 min,  0.428 sec
 * total energy  :    -7.2373272 Eh     change       -0.2611245E-12 Eh
   gradient norm :     0.0255182 Eh/α   predicted     0.0000000E+00 (-100.00%)
   displ. norm   :     0.0102563 α      lambda       -0.2617220E-03
   maximum displ.:     0.0102563 α      in ANC's #1, #1, #1, ...

........................................................................
.............................. CYCLE    2 ..............................
........................................................................

 iter      E             dE          RMSdq      gap      omega  full diag
   1     -7.2564902 -0.725649E+01  0.111E-01    0.00       0.0  T
   2     -7.2564927 -0.246433E-05  0.716E-02    0.00       1.0  T
   3     -7.2564928 -0.135522E-06  0.308E-02    0.00       2.3  T
   4     -7.2564929 -0.609279E-07  0.250E-03    0.00      28.3  T
   5     -7.2564929 -0.676410E-09  0.103E-03    0.00      68.6  T
   6     -7.2564929  0.124331E-09  0.168E-03    0.00      42.1  T
   7     -7.2564929 -0.274557E-09  0.867E-05    0.00     815.7  T
   8     -7.2564929 -0.138645E-11  0.199E-05    0.00    3560.6  T
     SCC iter.                  ...        0 min,  0.949 sec
     gradient                   ...        0 min,  0.411 sec
 * total energy  :    -7.2375279 Eh     change       -0.2007331E-03 Eh
   gradient norm :     0.0137158 Eh/α   predicted    -0.1308750E-03 ( -34.80%)
   displ. norm   :     0.0119174 α      lambda       -0.1634531E-03
   maximum displ.:     0.0119174 α      in ANC's #1, #1, #1, ...

........................................................................
.............................. CYCLE    3 ..............................
........................................................................

 iter      E             dE          RMSdq      gap      omega  full diag
   1     -7.2552172 -0.725522E+01  0.127E-01    0.00       0.0  T
   2     -7.2552204 -0.320090E-05  0.822E-02    0.00       1.0  T
   3     -7.2552206 -0.203501E-06  0.357E-02    0.00       2.0  T
   4     -7.2552207 -0.918290E-07  0.291E-03    0.00      24.3  T
   5     -7.2552207 -0.101669E-08  0.106E-03    0.00      66.4  T
   6     -7.2552207 -0.184507E-09  0.140E-04    0.00     504.8  T
   7     -7.2552207 -0.395151E-11  0.258E-05    0.00    2737.4  T
     SCC iter.                  ...        0 min,  0.638 sec
     gradient                   ...        0 min,  0.493 sec
 * total energy  :    -7.2376129 Eh     change       -0.8501511E-04 Eh
   gradient norm :     0.0006681 Eh/α   predicted    -0.8173984E-04 (  -3.85%)
   displ. norm   :     0.0009153 α      lambda       -0.4082362E-06
   maximum displ.:     0.0009153 α      in ANC's #1, #1, #1, ...

........................................................................
.............................. CYCLE    4 ..............................
........................................................................

 iter      E             dE          RMSdq      gap      omega  full diag
   1     -7.2551206 -0.725512E+01  0.961E-03    0.00       0.0  T
   2     -7.2551206 -0.181878E-07  0.625E-03    0.00      11.3  T
   3     -7.2551206 -0.115338E-08  0.270E-03    0.00      26.1  T
   4     -7.2551206 -0.287138E-09  0.136E-03    0.00      51.9  T
   5     -7.2551206 -0.267105E-09  0.239E-04    0.00     295.6  T
   6     -7.2551206 -0.761435E-11  0.776E-05    0.00     911.6  T
     SCC iter.                  ...        0 min,  0.001 sec
     gradient                   ...        0 min,  0.000 sec
 * total energy  :    -7.2376131 Eh     change       -0.1656511E-06 Eh
   gradient norm :     0.0003056 Eh/α   predicted    -0.2038229E-06 (  23.04%)
   displ. norm   :     0.0002873 α      lambda       -0.5610416E-07
   maximum displ.:     0.0002873 α      in ANC's #1, #1, #1, ...

   *** GEOMETRY OPTIMIZATION CONVERGED AFTER 4 ITERATIONS ***

------------------------------------------------------------------------
 total energy gain   :        -0.0002859 Eh       -0.1794 kcal/mol
 total RMSD          :         0.0163264 a0        0.0086 Å
 total power (kW/mol):        -0.1876667 (step)   -0.1646 (real)
------------------------------------------------------------------------

 ANCopt (total)                0 d,  0 h,  0 min,  4.562 sec
 optimizer setup                ...        0 min,  0.000 sec (  0.003%)
 model hessian                  ...        0 min,  0.000 sec (  0.000%)
 ANC generation                 ...        0 min,  0.000 sec (  0.001%)
 coordinate transformation      ...        0 min,  0.000 sec (  0.000%)
 single point calculation       ...        0 min,  4.448 sec ( 97.516%)
 optimization log               ...        0 min,  0.000 sec (  0.004%)
 hessian update                 ...        0 min,  0.112 sec (  2.465%)
 rational function              ...        0 min,  0.000 sec (  0.006%)

================
 final structure:
================
2
 xtb: 6.7.1 (edcfbbe)
S           -0.00863955046980        0.00000000000000        0.00000000000000
O            1.45863955046980        0.00000000000000        0.00000000000000

 Bond Distances (Angstroems)
 ---------------------------
S1-O2=1.4673         O2-S1=1.4673         
 S  O  Rav=1.4673 sigma=0.0000  Rmin=1.4673  Rmax=1.4673     1

 selected bond angles (degree)
 --------------------


 selected dihedral angles (degree)
 ---------------------------------

           -------------------------------------------------
          |                Final Singlepoint                |
           -------------------------------------------------

          ...................................................
          :                      SETUP                      :
          :.................................................:
          :  # basis functions                  14          :
          :  # atomic orbitals                  13          :
          :  # shells                            5          :
          :  # electrons                        12          :
          :  max. iterations                   250          :
          :  Hamiltonian                  GFN2-xTB          :
          :  restarted?                      false          :
          :  GBSA solvation                  false          :
          :  PC potential                    false          :
          :  electronic temp.          300.0000000     K    :
          :  accuracy                    1.0000000          :
          :  -> integral cutoff          0.2500000E+02      :
          :  -> integral neglect         0.1000000E-07      :
          :  -> SCF convergence          0.1000000E-05 Eh   :
          :  -> wf. convergence          0.1000000E-03 e    :
          :  Broyden damping             0.4000000          :
          :  net charge                          0          :
          :  unpaired electrons                  0          :
          ...................................................

 iter      E             dE          RMSdq      gap      omega  full diag
   1     -7.2551206 -0.725512E+01  0.291E-06    0.00       0.0  T
   2     -7.2551206 -0.888178E-15  0.181E-06    0.00   39046.3  T
   3     -7.2551206  0.133227E-13  0.975E-07    0.00   72537.7  T

   *** convergence criteria satisfied after 3 iterations ***

         #    Occupation            Energy/Eh            Energy/eV
      -------------------------------------------------------------
         1        2.0000           -0.7729567             -21.0332
         2        2.0000           -0.6760526             -18.3963
         3        2.0000           -0.5392012             -14.6724
         4        2.0000           -0.5332147             -14.5095
         5        2.0000           -0.5332147             -14.5095
         6        1.0000           -0.3723277             -10.1316 (HOMO)
         7        1.0000           -0.3723277             -10.1316 (LUMO)
         8                         -0.1784152              -4.8549
         9                         -0.0418019              -1.1375
        10                         -0.0418019              -1.1375
        11                          0.0702324               1.9111
       ...                                ...                  ...
        13                          0.7809993              21.2521
      -------------------------------------------------------------
                  HL-Gap            0.0000000 Eh            0.0000 eV
             Fermi-level           -0.3723277 Eh          -10.1316 eV

 SCC (total)                   0 d,  0 h,  0 min,  0.001 sec
 SCC setup                      ...        0 min,  0.000 sec (  7.852%)
 Dispersion                     ...        0 min,  0.000 sec (  1.479%)
 classical contributions        ...        0 min,  0.000 sec (  0.702%)
 integral evaluation            ...        0 min,  0.000 sec ( 21.976%)
 iterations                     ...        0 min,  0.000 sec ( 33.880%)
 molecular gradient             ...        0 min,  0.000 sec ( 25.166%)
 printout                       ...        0 min,  0.000 sec (  7.806%)

         :::::::::::::::::::::::::::::::::::::::::::::::::::::
         ::                     SUMMARY                     ::
         :::::::::::::::::::::::::::::::::::::::::::::::::::::
         :: total energy              -7.237613096301 Eh    ::
         :: gradient norm              0.000305429959 Eh/a0 ::
         :: HOMO-LUMO gap              0.000000007101 eV    ::
         ::.................................................::
         :: SCC energy                -7.255120584455 Eh    ::
         :: -> isotropic ES            0.016972302373 Eh    ::
         :: -> anisotropic ES          0.000112169134 Eh    ::
         :: -> anisotropic XC         -0.000823261677 Eh    ::
         :: -> dispersion             -0.000467784393 Eh    ::
         :: repulsion energy           0.017507488154 Eh    ::
         :: add. restraining           0.000000000000 Eh    ::
         :: total charge              -0.000000000000 e     ::
         :::::::::::::::::::::::::::::::::::::::::::::::::::::

           -------------------------------------------------
          |                Property Printout                |
           -------------------------------------------------

    * Orbital Energies and Occupations

         #    Occupation            Energy/Eh            Energy/eV
      -------------------------------------------------------------
         1        2.0000           -0.7729567             -21.0332
         2        2.0000           -0.6760526             -18.3963
         3        2.0000           -0.5392012             -14.6724
         4        2.0000           -0.5332147             -14.5095
         5        2.0000           -0.5332147             -14.5095
         6        1.0000           -0.3723277             -10.1316 (HOMO)
         7        1.0000           -0.3723277             -10.1316 (LUMO)
         8                         -0.1784152              -4.8549
         9                         -0.0418019              -1.1375
        10                         -0.0418019              -1.1375
        11                          0.0702324               1.9111
        12                          0.0702324               1.9111
        13                          0.7809993              21.2521
      -------------------------------------------------------------
                  HL-Gap            0.0000000 Eh            0.0000 eV
             Fermi-level           -0.3723277 Eh          -10.1316 eV

     #   Z          covCN         q      C6AA      α(0)
     1  16 S        0.859     0.311   127.215    19.078
     2   8 O        0.859    -0.311    19.974     5.992

 Mol. C6AA /au·bohr⁶  :        245.024859
 Mol. C8AA /au·bohr⁸  :       9711.766067
 Mol. α(0) /au        :         25.069746


Wiberg/Mayer (AO) data.
largest (>0.10) Wiberg bond orders for each atom

 ---------------------------------------------------------------------------
     #   Z sym  total        # sym  WBO       # sym  WBO       # sym  WBO
 ---------------------------------------------------------------------------
     1  16 S    1.755 --     2 O    1.755
     2   8 O    1.755 --     1 S    1.755
 ---------------------------------------------------------------------------

Topologies differ in total number of bonds
Writing topology from bond orders to xtbtopo.mol

molecular dipole:
                 x           y           z       tot (Debye)
 q only:       -0.861       0.000       0.000
   full:       -0.720       0.000       0.000       1.829
molecular quadrupole (traceless):
                xx          xy          yy          xz          yz          zz
 q only:       -2.360       0.000       1.180       0.000       0.000       1.180
  q+dip:       -3.098       0.000       1.549       0.000       0.000       1.549
   full:       -3.240       0.000       1.620       0.000      -0.000       1.620

           -------------------------------------------------
          |                Geometry Summary                 |
           -------------------------------------------------

      molecular mass/u    :       48.0641923
   center of mass at/Å    :        0.4797822       0.0000000       0.0000000
  moments of inertia/u·Å² :        0.0000000E+00   0.2297926E+02   0.2297926E+02
rotational constants/cm⁻¹ :             Infinity   0.7336020E+00   0.7336020E+00


optimized geometry written to: xtbopt.xyz


           -------------------------------------------------
          | TOTAL ENERGY               -7.237613096301 Eh   |
          | GRADIENT NORM               0.000305429959 Eh/α |
          | HOMO-LUMO GAP               0.000000007101 eV   |
           -------------------------------------------------

------------------------------------------------------------------------
 * finished run on 2026/08/20 at 02:39:59.031     
------------------------------------------------------------------------
 total:
 * wall-time:     0 d,  0 h,  0 min,  6.390 sec
 *  cpu-time:     0 d,  0 h,  0 min,  4.030 sec
 * ratio c/w:     0.631 speedup
 SCF:
 * wall-time:     0 d,  0 h,  0 min,  1.584 sec
 *  cpu-time:     0 d,  0 h,  0 min,  1.047 sec
 * ratio c/w:     0.661 speedup
 ANC optimizer:
 * wall-time:     0 d,  0 h,  0 min,  4.599 sec
 *  cpu-time:     0 d,  0 h,  0 min,  2.527 sec
 * ratio c/w:     0.549 speedup

