      -----------------------------------------------------------      
     |                   =====================                   |     
     |                           x T B                           |     
     |                   =====================                   |     
     |                         S. Grimme                         |     
     |          Mulliken Center for Theoretical Chemistry        |     
     |                    University of Bonn                     |     
      -----------------------------------------------------------      

   * xtb version 6.7.1 (edcfbbe) compiled by 'conda@3ef47c1a292c' on 2024-11-25

   xtb is free software: you can redistribute it and/or modify it under
   the terms of the GNU Lesser General Public License as published by
   the Free Software Foundation, either version 3 of the License, or
   (at your option) any later version.
   
   xtb is distributed in the hope that it will be useful,
   but WITHOUT ANY WARRANTY; without even the implied warranty of
   MERCHANTABILITY or FITNESS FOR A PARTICULAR PURPOSE.  See the
   GNU Lesser General Public License for more details.
   
   Cite this work as:
   * C. Bannwarth, E. Caldeweyher, S. Ehlert, A. Hansen, P. Pracht,
     J. Seibert, S. Spicher, S. Grimme, WIREs Comput. Mol. Sci., 2020, 11,
     e01493. DOI: 10.1002/wcms.1493
   
   for GFN2-xTB:
   * C. Bannwarth, S. Ehlert and S. Grimme., J. Chem. Theory Comput., 2019,
     15, 1652-1671. DOI: 10.1021/acs.jctc.8b01176
   for GFN1-xTB:
   * S. Grimme, C. Bannwarth, P. Shushkov, J. Chem. Theory Comput., 2017,
     13, 1989-2009. DOI: 10.1021/acs.jctc.7b00118
   for GFN0-xTB:
   * P. Pracht, E. Caldeweyher, S. Ehlert, S. Grimme, ChemRxiv, 2019, preprint.
     DOI: 10.26434/chemrxiv.8326202.v1
   for GFN-FF:
   * S. Spicher and S. Grimme, Angew. Chem. Int. Ed., 2020, 59, 15665-15673.
     DOI: 10.1002/anie.202004239
   
   for ALPB and GBSA implicit solvation:
   * S. Ehlert, M. Stahn, S. Spicher, S. Grimme, J. Chem. Theory Comput.,
     2021, 17, 4250-4261. DOI: 10.1021/acs.jctc.1c00471
   
   for ddCOSMO and CPCM-X implicit solvation:
   * M. Stahn, S. Ehlert, S. Grimme, J. Phys. Chem. A,
     2023, XX, XXXX-XXXX. DOI: 10.1021/acs.jpca.3c04382
   
   for DFT-D4:
   * E. Caldeweyher, C. Bannwarth and S. Grimme, J. Chem. Phys., 2017,
     147, 034112. DOI: 10.1063/1.4993215
   * E. Caldeweyher, S. Ehlert, A. Hansen, H. Neugebauer, S. Spicher,
     C. Bannwarth and S. Grimme, J. Chem. Phys., 2019, 150, 154122.
     DOI: 10.1063/1.5090222
   * E. Caldeweyher, J.-M. Mewes, S. Ehlert and S. Grimme, Phys. Chem. Chem. Phys.
     2020, 22, 8499-8512. DOI: 10.1039/D0CP00502A
   
   for sTDA-xTB:
   * S. Grimme and C. Bannwarth, J. Chem. Phys., 2016, 145, 054103.
     DOI: 10.1063/1.4959605
   
   in the mass-spec context:
   * V. Asgeirsson, C. Bauer and S. Grimme, Chem. Sci., 2017, 8, 4879.
     DOI: 10.1039/c7sc00601b
   * J. Koopman and S. Grimme, ACS Omega 2019, 4, 12, 15120-15133.
     DOI: 10.1021/acsomega.9b02011
   
   for metadynamics refer to:
   * S. Grimme, J. Chem. Theory Comput., 2019, 155, 2847-2862
     DOI: 10.1021/acs.jctc.9b00143
   
   for SPH calculations refer to:
   * S. Spicher and S. Grimme, J. Chem. Theory Comput., 2021, 17, 1701-1714
     DOI: 10.1021/acs.jctc.0c01306
   
   for ONIOM refer to:
   * C. Plett, A. Katbashev, S. Ehlert, S. Grimme, M. Bursch,
     Phys. Chem. Chem. Phys., 2023, 25, 17860-17868. DOI: 10.1039/D3CP02178E
   
   for DIPRO refer to:
   * J. Kohn, N. Gildemeister, S. Grimme, D. Fazzi, A. Hansen,
     J. Chem. Phys., 2023, just accepted.
   
   for PTB refer to:
   * S. Grimme, M. Mueller, A. Hansen, J. Chem. Phys., 2023, 158, 124111.
     DOI: 10.1063/5.0137838
   
   with help from (in alphabetical order)
   P. Atkinson, C. Bannwarth, F. Bohle, G. Brandenburg, E. Caldeweyher
   M. Checinski, S. Dohm, S. Ehlert, S. Ehrlich, I. Gerasimov, C. Hölzer
   A. Katbashev, J. Kohn, J. Koopman, C. Lavigne, S. Lehtola, F. März, M. Müller,
   F. Musil, H. Neugebauer, J. Pisarek, C. Plett, P. Pracht, F. Pultar,
   J. Seibert, P. Shushkov, S. Spicher, M. Stahn, M. Steiner, T. Strunk,
   J. Stückrath, T. Rose, and J. Unsleber
   
 * started run on 2026/08/20 at 02:30:51.559     
   ID    Z sym.   atoms
    1    8 O      1
    2   16 S      2
    3    7 N      3, 5
    4    6 C      4, 6-9
    5    1 H      10-17

           -------------------------------------------------
          |                Calculation Setup                |
           -------------------------------------------------

          program call               : /h/399/yunhengzou/micromamba/envs/el-agente/bin/xtb subA.xyz --opt --gfn 2 -P 4 --chrg 0 --uhf 0
          coordinate file            : subA.xyz
          omp threads                :                     4


           -------------------------------------------------
          |                 G F N 2 - x T B                 |
           -------------------------------------------------

        Reference                      10.1021/acs.jctc.8b01176
      * Hamiltonian:
        H0-scaling (s, p, d)           1.850000    2.230000    2.230000
        zeta-weighting                 0.500000
      * Dispersion:
        s8                             2.700000
        a1                             0.520000
        a2                             5.000000
        s9                             5.000000
      * Repulsion:
        kExp                           1.500000    1.000000
        rExp                           1.000000
      * Coulomb:
        alpha                          2.000000
        third order                    shell-resolved
        anisotropic                    true
        a3                             3.000000
        a5                             4.000000
        cn-shift                       1.200000
        cn-exp                         4.000000
        max-rad                        5.000000


          ...................................................
          :                      SETUP                      :
          :.................................................:
          :  # basis functions                  50          :
          :  # atomic orbitals                  49          :
          :  # shells                           27          :
          :  # electrons                        50          :
          :  max. iterations                   250          :
          :  Hamiltonian                  GFN2-xTB          :
          :  restarted?                      false          :
          :  GBSA solvation                  false          :
          :  PC potential                    false          :
          :  electronic temp.          300.0000000     K    :
          :  accuracy                    1.0000000          :
          :  -> integral cutoff          0.2500000E+02      :
          :  -> integral neglect         0.1000000E-07      :
          :  -> SCF convergence          0.1000000E-05 Eh   :
          :  -> wf. convergence          0.1000000E-03 e    :
          :  Broyden damping             0.4000000          :
          :  net charge                          0          :
          :  unpaired electrons                  0          :
          ...................................................

 iter      E             dE          RMSdq      gap      omega  full diag
   1    -28.0823494 -0.280823E+02  0.469E+00    2.66       0.0  T
   2    -28.1294836 -0.471342E-01  0.354E+00    2.79       1.0  T
   3    -28.1396662 -0.101826E-01  0.164E+00    2.56       1.0  T
   4    -28.1438168 -0.415052E-02  0.812E-01    2.65       1.0  T
   5    -28.1493976 -0.558083E-02  0.285E-01    2.58       1.0  T
   6    -28.1494197 -0.220939E-04  0.551E-02    2.58       1.0  T
   7    -28.1494273 -0.765750E-05  0.400E-02    2.58       1.0  T
   8    -28.1494369 -0.956091E-05  0.217E-02    2.58       1.1  T
   9    -28.1494379 -0.104099E-05  0.507E-03    2.58       4.8  T
  10    -28.1494380 -0.913380E-07  0.261E-03    2.58       9.3  T
  11    -28.1494380 -0.562420E-08  0.888E-04    2.58      27.3  T
  12    -28.1494381 -0.371475E-08  0.294E-04    2.58      82.4  T

   *** convergence criteria satisfied after 12 iterations ***

         #    Occupation            Energy/Eh            Energy/eV
      -------------------------------------------------------------
         1        2.0000           -0.7574002             -20.6099
       ...           ...                  ...                  ...
        19        2.0000           -0.4738224             -12.8934
        20        2.0000           -0.4664372             -12.6924
        21        2.0000           -0.4377568             -11.9120
        22        2.0000           -0.4208185             -11.4511
        23        2.0000           -0.3913280             -10.6486
        24        2.0000           -0.3811233             -10.3709
        25        2.0000           -0.3727654             -10.1435 (HOMO)
        26                         -0.2780040              -7.5649 (LUMO)
        27                         -0.2186715              -5.9504
        28                         -0.1968834              -5.3575
        29                         -0.1524035              -4.1471
        30                         -0.0969105              -2.6371
       ...                                ...                  ...
        49                          0.7694067              20.9366
      -------------------------------------------------------------
                  HL-Gap            0.0947614 Eh            2.5786 eV
             Fermi-level           -0.3253847 Eh           -8.8542 eV

 SCC (total)                   0 d,  0 h,  0 min,  6.861 sec
 SCC setup                      ...        0 min,  0.009 sec (  0.126%)
 Dispersion                     ...        0 min,  0.049 sec (  0.717%)
 classical contributions        ...        0 min,  0.038 sec (  0.558%)
 integral evaluation            ...        0 min,  0.211 sec (  3.082%)
 iterations                     ...        0 min,  6.132 sec ( 89.374%)
 molecular gradient             ...        0 min,  0.421 sec (  6.141%)
 printout                       ...        0 min,  0.000 sec (  0.003%)

         :::::::::::::::::::::::::::::::::::::::::::::::::::::
         ::                     SUMMARY                     ::
         :::::::::::::::::::::::::::::::::::::::::::::::::::::
         :: total energy             -27.867209687441 Eh    ::
         :: gradient norm              0.123791072691 Eh/a0 ::
         :: HOMO-LUMO gap              2.578589406504 eV    ::
         ::.................................................::
         :: SCC energy               -28.149393998328 Eh    ::
         :: -> isotropic ES            0.051871472814 Eh    ::
         :: -> anisotropic ES          0.000617094248 Eh    ::
         :: -> anisotropic XC          0.018755581651 Eh    ::
         :: -> dispersion             -0.014954224958 Eh    ::
         :: repulsion energy           0.282184310887 Eh    ::
         :: add. restraining           0.000000000000 Eh    ::
         :: total charge               0.000000000000 e     ::
         :::::::::::::::::::::::::::::::::::::::::::::::::::::

      ----------------------------------------------------------- 
     |                   =====================                   |
     |                        A N C O P T                        |
     |                   =====================                   |
     |               Approximate Normal Coordinate               |
     |                Rational Function Optimizer                |
      ----------------------------------------------------------- 
      ----------------------------------------------------------- 
     |                   =====================                   |
     |                        A N C O P T                        |
     |                   =====================                   |
     |               Approximate Normal Coordinate               |
     |                Rational Function Optimizer                |
      ----------------------------------------------------------- 

          ...................................................
          :                      SETUP                      :
          :.................................................:
          :   optimization level            normal          :
          :   max. optcycles                   200          :
          :   ANC micro-cycles                  20          :
          :   degrees of freedom                45          :
          :.................................................:
          :   RF solver                   davidson          :
          :   write xtbopt.log                true          :
          :   linear?                        false          :
          :   energy convergence         0.5000000E-05 Eh   :
          :   grad. convergence          0.1000000E-02 Eh/α :
          :   maxmium RF displ.          1.0000000          :
          :   Hlow (freq-cutoff)         0.1000000E-01      :
          :   Hmax (freq-cutoff)         5.0000000          :
          :   S6 in model hess.         20.0000000          :
          ...................................................

generating ANC from exact Hessian ...
Using Lindh-Hessian (1995)
 Shifting diagonal of input Hessian by    6.0944928591114252E-003
 Lowest  eigenvalues of input Hessian
    0.000000    0.000000    0.000000    0.000000    0.000000    0.000000
    0.010000    0.012630    0.014564    0.016105    0.017721    0.021885
    0.027914    0.031680    0.038381    0.050167    0.055637    0.066339
 Highest eigenvalues
    1.355861    1.436873    1.580397    1.875816    2.001195    2.113242


........................................................................
.............................. CYCLE    1 ..............................
........................................................................

 iter      E             dE          RMSdq      gap      omega  full diag
   1    -28.1494381 -0.281494E+02  0.869E-05    2.58       0.0  T
   2    -28.1494381 -0.101572E-10  0.567E-05    2.58     427.6  T
   3    -28.1494381 -0.724754E-12  0.410E-05    2.58     592.2  T
     SCC iter.                  ...        0 min,  1.475 sec
     gradient                   ...        0 min,  0.401 sec
 * total energy  :   -27.8672097 Eh     change       -0.2174261E-09 Eh
   gradient norm :     0.1237893 Eh/α   predicted     0.0000000E+00 (-100.00%)
   displ. norm   :     0.3351199 α      lambda       -0.2078089E-01
   maximum displ.:     0.1681099 α      in ANC's #9, #26, #11, ...

........................................................................
.............................. CYCLE    2 ..............................
........................................................................

 iter      E             dE          RMSdq      gap      omega  full diag
   1    -28.1899327 -0.281899E+02  0.453E-01    2.65       0.0  T
   2    -28.1903072 -0.374481E-03  0.320E-01    2.72       1.0  T
   3    -28.1907830 -0.475754E-03  0.165E-01    2.69       1.0  T
   4    -28.1908743 -0.912982E-04  0.683E-02    2.70       1.0  T
   5    -28.1908996 -0.253021E-04  0.262E-02    2.70       1.0  T
   6    -28.1909030 -0.346450E-05  0.147E-02    2.70       1.7  T
   7    -28.1909046 -0.158382E-05  0.310E-03    2.70       7.8  T
   8    -28.1909046 -0.178340E-07  0.156E-03    2.70      15.6  T
   9    -28.1909046 -0.336763E-08  0.415E-04    2.70      58.4  T
  10    -28.1909046 -0.175042E-09  0.162E-04    2.70     149.9  T
     SCC iter.                  ...        0 min,  4.424 sec
     gradient                   ...        0 min,  0.290 sec
 * total energy  :   -27.8821433 Eh     change       -0.1493364E-01 Eh
   gradient norm :     0.0695258 Eh/α   predicted    -0.1155735E-01 ( -22.61%)
   displ. norm   :     0.3058695 α      lambda       -0.8399019E-02
   maximum displ.:     0.1569442 α      in ANC's #9, #6, #8, ...

........................................................................
.............................. CYCLE    3 ..............................
........................................................................

 iter      E             dE          RMSdq      gap      omega  full diag
   1    -28.2116075 -0.282116E+02  0.421E-01    2.71       0.0  T
   2    -28.2120519 -0.444398E-03  0.335E-01    2.79       1.0  T
   3    -28.2128964 -0.844575E-03  0.139E-01    2.76       1.0  T
   4    -28.2128993 -0.283418E-05  0.773E-02    2.77       1.0  T
   5    -28.2129324 -0.331566E-04  0.273E-02    2.77       1.0  T
   6    -28.2129387 -0.632456E-05  0.123E-02    2.77       2.0  T
   7    -28.2129394 -0.668453E-06  0.247E-03    2.76       9.8  T
   8    -28.2129394 -0.134504E-07  0.109E-03    2.77      22.2  T
   9    -28.2129394 -0.189365E-08  0.369E-04    2.77      65.7  T
  10    -28.2129394 -0.207457E-09  0.147E-04    2.77     164.9  T
     SCC iter.                  ...        0 min,  3.496 sec
     gradient                   ...        0 min,  0.137 sec
 * total energy  :   -27.8866768 Eh     change       -0.4533497E-02 Eh
   gradient norm :     0.0193961 Eh/α   predicted    -0.4592402E-02 (   1.30%)
   displ. norm   :     0.1555120 α      lambda       -0.7972511E-03
   maximum displ.:     0.0864822 α      in ANC's #6, #5, #4, ...

........................................................................
.............................. CYCLE    4 ..............................
........................................................................

 iter      E             dE          RMSdq      gap      omega  full diag
   1    -28.2108440 -0.282108E+02  0.128E-01    2.76       0.0  T
   2    -28.2108698 -0.258231E-04  0.714E-02    2.76       1.0  T
   3    -28.2108709 -0.104597E-05  0.326E-02    2.76       1.0  T
   4    -28.2108695  0.141394E-05  0.170E-02    2.76       1.4  T
   5    -28.2108728 -0.333512E-05  0.623E-03    2.76       3.9  T
   6    -28.2108729 -0.103081E-06  0.176E-03    2.76      13.8  T
   7    -28.2108729 -0.303090E-07  0.583E-04    2.76      41.6  T
   8    -28.2108729 -0.154013E-08  0.293E-04    2.76      82.8  T
     SCC iter.                  ...        0 min,  4.954 sec
     gradient                   ...        0 min,  0.326 sec
 * total energy  :   -27.8872289 Eh     change       -0.5520754E-03 Eh
   gradient norm :     0.0072221 Eh/α   predicted    -0.4082663E-03 ( -26.05%)
   displ. norm   :     0.1367780 α      lambda       -0.2782630E-03
   maximum displ.:     0.0841991 α      in ANC's #6, #4, #5, ...

........................................................................
.............................. CYCLE    5 ..............................
........................................................................

 iter      E             dE          RMSdq      gap      omega  full diag
   1    -28.2095245 -0.282095E+02  0.954E-02    2.77       0.0  T
   2    -28.2095344 -0.989842E-05  0.503E-02    2.76       1.0  T
   3    -28.2095344 -0.187264E-07  0.214E-02    2.77       1.1  T
   4    -28.2095348 -0.438373E-06  0.107E-02    2.76       2.3  T
   5    -28.2095359 -0.101829E-05  0.446E-03    2.77       5.4  T
   6    -28.2095359 -0.313127E-07  0.181E-03    2.77      13.4  T
   7    -28.2095359 -0.458947E-07  0.466E-04    2.77      52.1  T
   8    -28.2095359 -0.506137E-09  0.209E-04    2.77     115.9  T
     SCC iter.                  ...        0 min,  4.419 sec
     gradient                   ...        0 min,  0.457 sec
 * total energy  :   -27.8873883 Eh     change       -0.1594301E-03 Eh
   gradient norm :     0.0026040 Eh/α   predicted    -0.1417338E-03 ( -11.10%)
   displ. norm   :     0.0634668 α      lambda       -0.4414600E-04
   maximum displ.:     0.0398829 α      in ANC's #1, #6, #4, ...

........................................................................
.............................. CYCLE    6 ..............................
........................................................................

 iter      E             dE          RMSdq      gap      omega  full diag
   1    -28.2098638 -0.282099E+02  0.312E-02    2.77       0.0  T
   2    -28.2098641 -0.260090E-06  0.164E-02    2.77       1.5  T
   3    -28.2098632  0.923374E-06  0.925E-03    2.77       2.6  T
   4    -28.2098643 -0.115833E-05  0.299E-03    2.77       8.1  T
   5    -28.2098643 -0.178762E-07  0.108E-03    2.77      22.5  T
   6    -28.2098643 -0.679551E-08  0.394E-04    2.77      61.5  T
   7    -28.2098644 -0.148719E-08  0.161E-04    2.77     151.1  T
     SCC iter.                  ...        0 min,  4.072 sec
     gradient                   ...        0 min,  0.162 sec
 * total energy  :   -27.8874246 Eh     change       -0.3631326E-04 Eh
   gradient norm :     0.0022057 Eh/α   predicted    -0.2216179E-04 ( -38.97%)
   displ. norm   :     0.1274030 α      lambda       -0.7164357E-04
   maximum displ.:     0.0936473 α      in ANC's #1, #6, #4, ...

........................................................................
.............................. CYCLE    7 ..............................
........................................................................

 iter      E             dE          RMSdq      gap      omega  full diag
   1    -28.2106276 -0.282106E+02  0.540E-02    2.78       0.0  T
   2    -28.2106287 -0.112171E-05  0.296E-02    2.78       1.0  T
   3    -28.2106261  0.258320E-05  0.167E-02    2.78       1.5  T
   4    -28.2106296 -0.349599E-05  0.543E-03    2.78       4.5  T
   5    -28.2106297 -0.638647E-07  0.287E-03    2.78       8.5  T
   6    -28.2106297 -0.461226E-07  0.960E-04    2.78      25.3  T
   7    -28.2106297 -0.101696E-07  0.336E-04    2.78      72.1  T
     SCC iter.                  ...        0 min,  4.068 sec
     gradient                   ...        0 min,  0.301 sec
 * total energy  :   -27.8874787 Eh     change       -0.5406182E-04 Eh
   gradient norm :     0.0021072 Eh/α   predicted    -0.3640410E-04 ( -32.66%)
   displ. norm   :     0.1208612 α      lambda       -0.4957056E-04
   maximum displ.:     0.0972033 α      in ANC's #1, #6, #4, ...

........................................................................
.............................. CYCLE    8 ..............................
........................................................................

 iter      E             dE          RMSdq      gap      omega  full diag
   1    -28.2109939 -0.282110E+02  0.467E-02    2.79       0.0  T
   2    -28.2109948 -0.913532E-06  0.256E-02    2.79       1.0  T
   3    -28.2109932  0.164099E-05  0.143E-02    2.79       1.7  T
   4    -28.2109956 -0.238754E-05  0.433E-03    2.79       5.6  T
   5    -28.2109956 -0.314308E-08  0.253E-03    2.79       9.6  T
   6    -28.2109956 -0.517569E-07  0.813E-04    2.79      29.8  T
   7    -28.2109957 -0.624737E-08  0.325E-04    2.79      74.7  T
     SCC iter.                  ...        0 min,  1.934 sec
     gradient                   ...        0 min,  0.311 sec
 * total energy  :   -27.8875208 Eh     change       -0.4211286E-04 Eh
   gradient norm :     0.0031098 Eh/α   predicted    -0.2514676E-04 ( -40.29%)
   displ. norm   :     0.1151683 α      lambda       -0.4964722E-04
   maximum displ.:     0.0927589 α      in ANC's #1, #6, #3, ...

........................................................................
.............................. CYCLE    9 ..............................
........................................................................

 iter      E             dE          RMSdq      gap      omega  full diag
   1    -28.2111134 -0.282111E+02  0.419E-02    2.79       0.0  T
   2    -28.2111141 -0.668185E-06  0.231E-02    2.79       1.0  T
   3    -28.2111128  0.136206E-05  0.127E-02    2.79       1.9  T
   4    -28.2111147 -0.193398E-05  0.345E-03    2.79       7.0  T
   5    -28.2111147  0.151521E-07  0.174E-03    2.79      13.9  T
   6    -28.2111147 -0.304939E-07  0.556E-04    2.79      43.7  T
   7    -28.2111147 -0.170787E-08  0.290E-04    2.79      83.7  T
     SCC iter.                  ...        0 min,  2.115 sec
     gradient                   ...        0 min,  0.336 sec
 * total energy  :   -27.8875665 Eh     change       -0.4570212E-04 Eh
   gradient norm :     0.0032685 Eh/α   predicted    -0.2515440E-04 ( -44.96%)
   displ. norm   :     0.1725787 α      lambda       -0.7542680E-04
   maximum displ.:     0.1325393 α      in ANC's #1, #3, #2, ...

........................................................................
.............................. CYCLE   10 ..............................
........................................................................

 iter      E             dE          RMSdq      gap      omega  full diag
   1    -28.2108128 -0.282108E+02  0.630E-02    2.79       0.0  T
   2    -28.2108145 -0.171397E-05  0.350E-02    2.79       1.0  T
   3    -28.2108126  0.194086E-05  0.159E-02    2.79       1.5  T
   4    -28.2108152 -0.262519E-05  0.580E-03    2.79       4.2  T
   5    -28.2108154 -0.125810E-06  0.298E-03    2.79       8.1  T
   6    -28.2108154 -0.154257E-07  0.143E-03    2.79      17.0  T
   7    -28.2108154 -0.235390E-07  0.483E-04    2.79      50.2  T
   8    -28.2108154 -0.345402E-09  0.137E-04    2.79     177.6  T
     SCC iter.                  ...        0 min,  3.520 sec
     gradient                   ...        0 min,  0.337 sec
 * total energy  :   -27.8876348 Eh     change       -0.6827665E-04 Eh
   gradient norm :     0.0030220 Eh/α   predicted    -0.3883855E-04 ( -43.12%)
   displ. norm   :     0.3211542 α      lambda       -0.1214423E-03
   maximum displ.:     0.2372850 α      in ANC's #1, #3, #2, ...

........................................................................
.............................. CYCLE   11 ..............................
........................................................................

 iter      E             dE          RMSdq      gap      omega  full diag
   1    -28.2094740 -0.282095E+02  0.121E-01    2.79       0.0  T
   2    -28.2094800 -0.609296E-05  0.662E-02    2.79       1.0  T
   3    -28.2094754  0.467168E-05  0.266E-02    2.79       1.0  T
   4    -28.2094813 -0.593119E-05  0.121E-02    2.79       2.0  T
   5    -28.2094821 -0.804883E-06  0.612E-03    2.79       4.0  T
   6    -28.2094822 -0.965440E-07  0.255E-03    2.79       9.5  T
   7    -28.2094823 -0.709976E-07  0.947E-04    2.79      25.6  T
   8    -28.2094823 -0.139372E-08  0.278E-04    2.79      87.1  T
     SCC iter.                  ...        0 min,  4.579 sec
     gradient                   ...        0 min,  0.258 sec
 * total energy  :   -27.8877312 Eh     change       -0.9642158E-04 Eh
   gradient norm :     0.0045911 Eh/α   predicted    -0.6698465E-04 ( -30.53%)
   displ. norm   :     0.3966159 α      lambda       -0.1138377E-03
   maximum displ.:     0.2895130 α      in ANC's #1, #3, #4, ...

........................................................................
.............................. CYCLE   12 ..............................
........................................................................

 iter      E             dE          RMSdq      gap      omega  full diag
   1    -28.2075010 -0.282075E+02  0.149E-01    2.79       0.0  T
   2    -28.2075108 -0.978127E-05  0.825E-02    2.79       1.0  T
   3    -28.2075056  0.524933E-05  0.309E-02    2.79       1.0  T
   4    -28.2075120 -0.640939E-05  0.152E-02    2.79       1.6  T
   5    -28.2075134 -0.148470E-05  0.780E-03    2.79       3.1  T
   6    -28.2075136 -0.182226E-06  0.295E-03    2.79       8.2  T
   7    -28.2075137 -0.936848E-07  0.118E-03    2.79      20.5  T
   8    -28.2075137 -0.248792E-08  0.371E-04    2.79      65.3  T
   9    -28.2075137 -0.181739E-09  0.131E-04    2.79     184.5  T
     SCC iter.                  ...        0 min,  3.535 sec
     gradient                   ...        0 min,  0.251 sec
 * total energy  :   -27.8877879 Eh     change       -0.5668815E-04 Eh
   gradient norm :     0.0077628 Eh/α   predicted    -0.6587040E-04 (  16.20%)
   displ. norm   :     0.0539978 α      lambda       -0.8629705E-04
   maximum displ.:     0.0334597 α      in ANC's #1, #4, #2, ...

........................................................................
.............................. CYCLE   13 ..............................
........................................................................

 iter      E             dE          RMSdq      gap      omega  full diag
   1    -28.2095249 -0.282095E+02  0.329E-02    2.79       0.0  T
   2    -28.2095280 -0.313189E-05  0.192E-02    2.79       1.3  T
   3    -28.2095282 -0.187204E-06  0.105E-02    2.79       2.3  T
   4    -28.2095279  0.315237E-06  0.541E-03    2.79       4.5  T
   5    -28.2095283 -0.398266E-06  0.929E-04    2.79      26.1  T
   6    -28.2095283 -0.107001E-08  0.454E-04    2.79      53.4  T
     SCC iter.                  ...        0 min,  2.518 sec
     gradient                   ...        0 min,  0.281 sec
 * total energy  :   -27.8878477 Eh     change       -0.5979499E-04 Eh
   gradient norm :     0.0039766 Eh/α   predicted    -0.4327471E-04 ( -27.63%)
   displ. norm   :     0.2633221 α      lambda       -0.1101873E-03
   maximum displ.:     0.1681945 α      in ANC's #1, #4, #2, ...

........................................................................
.............................. CYCLE   14 ..............................
........................................................................

 iter      E             dE          RMSdq      gap      omega  full diag
   1    -28.2101918 -0.282102E+02  0.100E-01    2.79       0.0  T
   2    -28.2101952 -0.336798E-05  0.552E-02    2.79       1.0  T
   3    -28.2101884  0.680298E-05  0.281E-02    2.79       1.0  T
   4    -28.2101963 -0.790804E-05  0.109E-02    2.79       2.2  T
   5    -28.2101971 -0.872678E-06  0.415E-03    2.79       5.9  T
   6    -28.2101971 -0.135344E-07  0.950E-04    2.79      25.5  T
   7    -28.2101972 -0.565846E-08  0.561E-04    2.79      43.2  T
     SCC iter.                  ...        0 min,  4.146 sec
     gradient                   ...        0 min,  0.346 sec
 * total energy  :   -27.8879366 Eh     change       -0.8892576E-04 Eh
   gradient norm :     0.0028957 Eh/α   predicted    -0.5891526E-04 ( -33.75%)
   displ. norm   :     0.4807520 α      lambda       -0.1594187E-03
   maximum displ.:     0.2859740 α      in ANC's #1, #4, #2, ...

........................................................................
.............................. CYCLE   15 ..............................
........................................................................

 iter      E             dE          RMSdq      gap      omega  full diag
   1    -28.2080031 -0.282080E+02  0.177E-01    2.80       0.0  T
   2    -28.2080116 -0.857751E-05  0.972E-02    2.79       1.0  T
   3    -28.2079874  0.241884E-04  0.504E-02    2.80       1.0  T
   4    -28.2080162 -0.288077E-04  0.164E-02    2.79       1.5  T
   5    -28.2080174 -0.119255E-05  0.618E-03    2.79       3.9  T
   6    -28.2080175 -0.558838E-07  0.143E-03    2.79      17.0  T
   7    -28.2080175 -0.978620E-09  0.910E-04    2.79      26.6  T
   8    -28.2080175 -0.270701E-08  0.422E-04    2.79      57.5  T
     SCC iter.                  ...        0 min,  1.537 sec
     gradient                   ...        0 min,  0.477 sec
 * total energy  :   -27.8880228 Eh     change       -0.8621450E-04 Eh
   gradient norm :     0.0074473 Eh/α   predicted    -0.9813050E-04 (  13.82%)
   displ. norm   :     0.1331089 α      lambda       -0.1847522E-03
   maximum displ.:     0.0735395 α      in ANC's #5, #4, #2, ...

........................................................................
.............................. CYCLE   16 ..............................
........................................................................

 iter      E             dE          RMSdq      gap      omega  full diag
   1    -28.2118104 -0.282118E+02  0.670E-02    2.79       0.0  T
   2    -28.2118119 -0.145016E-05  0.363E-02    2.79       1.0  T
   3    -28.2118067  0.515241E-05  0.240E-02    2.79       1.0  T
   4    -28.2118139 -0.720775E-05  0.696E-03    2.79       3.5  T
   5    -28.2118141 -0.142384E-06  0.201E-03    2.79      12.0  T
   6    -28.2118141 -0.345236E-08  0.892E-04    2.79      27.2  T
   7    -28.2118141 -0.561893E-08  0.457E-04    2.79      53.1  T
     SCC iter.                  ...        0 min,  4.504 sec
     gradient                   ...        0 min,  0.350 sec
 * total energy  :   -27.8881125 Eh     change       -0.8961086E-04 Eh
   gradient norm :     0.0066664 Eh/α   predicted    -0.9401229E-04 (   4.91%)
   displ. norm   :     0.2877602 α      lambda       -0.1161179E-03
   maximum displ.:     0.1553491 α      in ANC's #1, #4, #2, ...

........................................................................
.............................. CYCLE   17 ..............................
........................................................................

 iter      E             dE          RMSdq      gap      omega  full diag
   1    -28.2101117 -0.282101E+02  0.993E-02    2.80       0.0  T
   2    -28.2101143 -0.253328E-05  0.550E-02    2.79       1.0  T
   3    -28.2101082  0.605515E-05  0.256E-02    2.79       1.0  T
   4    -28.2101155 -0.726674E-05  0.891E-03    2.79       2.7  T
   5    -28.2101157 -0.239255E-06  0.384E-03    2.79       6.3  T
   6    -28.2101158 -0.769187E-07  0.150E-03    2.79      16.2  T
   7    -28.2101158 -0.205091E-07  0.631E-04    2.79      38.5  T
   8    -28.2101158 -0.444121E-09  0.241E-04    2.79     100.8  T
     SCC iter.                  ...        0 min,  6.166 sec
     gradient                   ...        0 min,  0.285 sec
 * total energy  :   -27.8882008 Eh     change       -0.8837171E-04 Eh
   gradient norm :     0.0066354 Eh/α   predicted    -0.6286747E-04 ( -28.86%)
   displ. norm   :     0.2742266 α      lambda       -0.1907802E-03
   maximum displ.:     0.1370299 α      in ANC's #2, #1, #4, ...

........................................................................
.............................. CYCLE   18 ..............................
........................................................................

 iter      E             dE          RMSdq      gap      omega  full diag
   1    -28.2094667 -0.282095E+02  0.973E-02    2.79       0.0  T
   2    -28.2094721 -0.538914E-05  0.592E-02    2.79       1.0  T
   3    -28.2094641  0.803711E-05  0.347E-02    2.79       1.0  T
   4    -28.2094760 -0.118965E-04  0.943E-03    2.79       2.6  T
   5    -28.2094762 -0.266999E-06  0.502E-03    2.79       4.8  T
   6    -28.2094763 -0.494498E-07  0.286E-03    2.79       8.5  T
   7    -28.2094764 -0.904872E-07  0.729E-04    2.79      33.3  T
   8    -28.2094764 -0.255529E-09  0.275E-04    2.79      88.1  T
     SCC iter.                  ...        0 min,  3.108 sec
     gradient                   ...        0 min,  0.328 sec
 * total energy  :   -27.8883065 Eh     change       -0.1057197E-03 Eh
   gradient norm :     0.0050265 Eh/α   predicted    -0.1025628E-03 (  -2.99%)
   displ. norm   :     0.2361476 α      lambda       -0.1154693E-03
   maximum displ.:     0.1389693 α      in ANC's #2, #4, #6, ...

........................................................................
.............................. CYCLE   19 ..............................
........................................................................

 iter      E             dE          RMSdq      gap      omega  full diag
   1    -28.2084057 -0.282084E+02  0.804E-02    2.78       0.0  T
   2    -28.2084087 -0.299014E-05  0.451E-02    2.79       1.0  T
   3    -28.2084031  0.562884E-05  0.285E-02    2.78       1.0  T
   4    -28.2084117 -0.862994E-05  0.734E-03    2.79       3.3  T
   5    -28.2084116  0.690952E-07  0.431E-03    2.79       5.6  T
   6    -28.2084118 -0.185853E-06  0.129E-03    2.79      18.8  T
   7    -28.2084118 -0.161669E-07  0.482E-04    2.79      50.3  T
   8    -28.2084118 -0.127745E-09  0.162E-04    2.79     149.7  T
     SCC iter.                  ...        0 min,  2.965 sec
     gradient                   ...        0 min,  0.395 sec
 * total energy  :   -27.8883663 Eh     change       -0.5972914E-04 Eh
   gradient norm :     0.0085045 Eh/α   predicted    -0.6095227E-04 (   2.05%)
   displ. norm   :     0.1696133 α      lambda       -0.3161616E-03
   maximum displ.:     0.0998355 α      in ANC's #2, #1, #6, ...

........................................................................
.............................. CYCLE   20 ..............................
........................................................................

 iter      E             dE          RMSdq      gap      omega  full diag
   1    -28.2148258 -0.282148E+02  0.103E-01    2.76       0.0  T
   2    -28.2148414 -0.155706E-04  0.667E-02    2.77       1.0  T
   3    -28.2148591 -0.176935E-04  0.410E-02    2.77       1.0  T
   4    -28.2148667 -0.763943E-05  0.114E-02    2.77       2.1  T
   5    -28.2148677 -0.104988E-05  0.534E-03    2.77       4.5  T
   6    -28.2148680 -0.236632E-06  0.187E-03    2.77      13.0  T
   7    -28.2148680 -0.146998E-07  0.666E-04    2.77      36.4  T
   8    -28.2148680 -0.614200E-09  0.274E-04    2.77      88.4  T
     SCC iter.                  ...        0 min,  4.849 sec
     gradient                   ...        0 min,  0.365 sec
 * total energy  :   -27.8883999 Eh     change       -0.3362005E-04 Eh
   gradient norm :     0.0092445 Eh/α   predicted    -0.1626260E-03 ( 383.72%)
   displ. norm   :     0.2153998 α      lambda       -0.2543928E-03
   maximum displ.:     0.1124936 α      in ANC's #2, #4, #1, ...
 * RMSD in coord.:     0.8129154 α      energy gain  -0.2119021E-01 Eh

generating ANC from exact Hessian ...
Using Lindh-Hessian (1995)
 Shifting diagonal of input Hessian by    5.8036605160509368E-003
 Lowest  eigenvalues of input Hessian
    0.000000    0.000000    0.000000    0.000000    0.000000    0.000000
    0.010000    0.013537    0.016041    0.016925    0.017771    0.025482
    0.029373    0.035459    0.040066    0.057636    0.066246    0.073582
 Highest eigenvalues
    1.399934    1.509939    1.777661    1.989036    2.218959    2.535511


........................................................................
.............................. CYCLE   21 ..............................
........................................................................

 iter      E             dE          RMSdq      gap      omega  full diag
   1    -28.2109403 -0.282109E+02  0.863E-02    2.77       0.0  T
   2    -28.2109443 -0.402773E-05  0.495E-02    2.77       1.0  T
   3    -28.2109382  0.614476E-05  0.267E-02    2.77       1.0  T
   4    -28.2109453 -0.718924E-05  0.831E-03    2.77       2.9  T
   5    -28.2109459 -0.587485E-06  0.299E-03    2.77       8.1  T
   6    -28.2109459 -0.647069E-08  0.113E-03    2.77      21.4  T
   7    -28.2109459 -0.127219E-07  0.491E-04    2.77      49.4  T
   8    -28.2109459 -0.139737E-08  0.243E-04    2.77      99.7  T
     SCC iter.                  ...        0 min,  3.198 sec
     gradient                   ...        0 min,  0.340 sec
 * total energy  :   -27.8885481 Eh     change       -0.1482495E-03 Eh
   gradient norm :     0.0064156 Eh/α   predicted     0.0000000E+00 (-100.00%)
   displ. norm   :     0.0604069 α      lambda       -0.1246818E-03
   maximum displ.:     0.0378405 α      in ANC's #2, #1, #4, ...

........................................................................
.............................. CYCLE   22 ..............................
........................................................................

 iter      E             dE          RMSdq      gap      omega  full diag
   1    -28.2120414 -0.282120E+02  0.325E-02    2.77       0.0  T
   2    -28.2120432 -0.172844E-05  0.218E-02    2.77       1.1  T
   3    -28.2120437 -0.528054E-06  0.125E-02    2.77       1.9  T
   4    -28.2120443 -0.668443E-06  0.459E-03    2.77       5.3  T
   5    -28.2120445 -0.153764E-06  0.178E-03    2.77      13.7  T
   6    -28.2120445  0.244157E-09  0.111E-03    2.77      21.8  T
   7    -28.2120445 -0.145360E-07  0.223E-04    2.77     108.8  T
   8    -28.2120445 -0.363833E-10  0.996E-05    2.77     243.6  T
     SCC iter.                  ...        0 min,  3.731 sec
     gradient                   ...        0 min,  0.246 sec
 * total energy  :   -27.8886407 Eh     change       -0.9259151E-04 Eh
   gradient norm :     0.0028192 Eh/α   predicted    -0.6256857E-04 ( -32.43%)
   displ. norm   :     0.1175517 α      lambda       -0.1088247E-03
   maximum displ.:     0.0832961 α      in ANC's #2, #1, #4, ...

........................................................................
.............................. CYCLE   23 ..............................
........................................................................

 iter      E             dE          RMSdq      gap      omega  full diag
   1    -28.2126325 -0.282126E+02  0.421E-02    2.78       0.0  T
   2    -28.2126353 -0.279444E-05  0.281E-02    2.78       1.0  T
   3    -28.2126360 -0.714987E-06  0.159E-02    2.78       1.5  T
   4    -28.2126370 -0.101607E-05  0.591E-03    2.78       4.1  T
   5    -28.2126373 -0.274040E-06  0.232E-03    2.78      10.4  T
   6    -28.2126373  0.440859E-08  0.143E-03    2.78      16.9  T
   7    -28.2126373 -0.262616E-07  0.274E-04    2.78      88.6  T
   8    -28.2126373 -0.483844E-10  0.116E-04    2.78     209.7  T
     SCC iter.                  ...        0 min,  7.352 sec
     gradient                   ...        0 min,  0.518 sec
 * total energy  :   -27.8887198 Eh     change       -0.7908836E-04 Eh
   gradient norm :     0.0018270 Eh/α   predicted    -0.5516403E-04 ( -30.25%)
   displ. norm   :     0.2263741 α      lambda       -0.8542062E-04
   maximum displ.:     0.1683251 α      in ANC's #2, #1, #4, ...

........................................................................
.............................. CYCLE   24 ..............................
........................................................................

 iter      E             dE          RMSdq      gap      omega  full diag
   1    -28.2119107 -0.282119E+02  0.670E-02    2.79       0.0  T
   2    -28.2119141 -0.344587E-05  0.417E-02    2.79       1.0  T
   3    -28.2119113  0.279543E-05  0.238E-02    2.79       1.0  T
   4    -28.2119159 -0.457538E-05  0.683E-03    2.79       3.5  T
   5    -28.2119163 -0.360033E-06  0.284E-03    2.79       8.5  T
   6    -28.2119163  0.528835E-08  0.163E-03    2.79      14.8  T
   7    -28.2119163 -0.384901E-07  0.320E-04    2.79      75.9  T
   8    -28.2119163 -0.557314E-10  0.113E-04    2.79     214.5  T
     SCC iter.                  ...        0 min,  5.102 sec
     gradient                   ...        0 min,  0.414 sec
 * total energy  :   -27.8888048 Eh     change       -0.8496378E-04 Eh
   gradient norm :     0.0044578 Eh/α   predicted    -0.4368469E-04 ( -48.58%)
   displ. norm   :     0.0923617 α      lambda       -0.5741122E-04
   maximum displ.:     0.0667451 α      in ANC's #2, #1, #3, ...

........................................................................
.............................. CYCLE   25 ..............................
........................................................................

 iter      E             dE          RMSdq      gap      omega  full diag
   1    -28.2118277 -0.282118E+02  0.258E-02    2.79       0.0  T
   2    -28.2118278 -0.160837E-06  0.153E-02    2.79       1.6  T
   3    -28.2118275  0.313261E-06  0.559E-03    2.79       4.3  T
   4    -28.2118279 -0.371907E-06  0.151E-03    2.79      16.0  T
   5    -28.2118279 -0.141685E-07  0.607E-04    2.79      39.9  T
   6    -28.2118279 -0.332154E-09  0.358E-04    2.79      67.8  T
     SCC iter.                  ...        0 min,  6.773 sec
     gradient                   ...        0 min,  0.370 sec
 * total energy  :   -27.8888552 Eh     change       -0.5037895E-04 Eh
   gradient norm :     0.0040363 Eh/α   predicted    -0.2895053E-04 ( -42.53%)
   displ. norm   :     0.2501612 α      lambda       -0.1491882E-03
   maximum displ.:     0.1784326 α      in ANC's #2, #1, #3, ...

........................................................................
.............................. CYCLE   26 ..............................
........................................................................

 iter      E             dE          RMSdq      gap      omega  full diag
   1    -28.2111181 -0.282111E+02  0.716E-02    2.79       0.0  T
   2    -28.2111210 -0.290741E-05  0.430E-02    2.79       1.0  T
   3    -28.2111185  0.258689E-05  0.201E-02    2.79       1.2  T
   4    -28.2111219 -0.340425E-05  0.637E-03    2.79       3.8  T
   5    -28.2111222 -0.315666E-06  0.239E-03    2.79      10.2  T
   6    -28.2111222  0.113731E-07  0.148E-03    2.79      16.4  T
   7    -28.2111222 -0.298117E-07  0.328E-04    2.79      73.9  T
   8    -28.2111222 -0.201624E-09  0.152E-04    2.79     159.6  T
     SCC iter.                  ...        0 min,  5.246 sec
     gradient                   ...        0 min,  0.463 sec
 * total energy  :   -27.8889484 Eh     change       -0.9323973E-04 Eh
   gradient norm :     0.0053356 Eh/α   predicted    -0.7926160E-04 ( -14.99%)
   displ. norm   :     0.0861468 α      lambda       -0.7324818E-04
   maximum displ.:     0.0511723 α      in ANC's #2, #1, #4, ...

........................................................................
.............................. CYCLE   27 ..............................
........................................................................

 iter      E             dE          RMSdq      gap      omega  full diag
   1    -28.2120597 -0.282121E+02  0.335E-02    2.79       0.0  T
   2    -28.2120615 -0.180356E-05  0.207E-02    2.79       1.2  T
   3    -28.2120615  0.938351E-08  0.115E-02    2.79       2.1  T
   4    -28.2120620 -0.477611E-06  0.487E-03    2.79       5.0  T
   5    -28.2120622 -0.228470E-06  0.189E-03    2.79      12.8  T
   6    -28.2120622  0.353931E-08  0.105E-03    2.79      23.0  T
   7    -28.2120622 -0.155223E-07  0.231E-04    2.79     104.9  T
   8    -28.2120622 -0.658744E-10  0.103E-04    2.79     235.3  T
     SCC iter.                  ...        0 min,  7.523 sec
     gradient                   ...        0 min,  0.369 sec
 * total energy  :   -27.8889995 Eh     change       -0.5106295E-04 Eh
   gradient norm :     0.0035613 Eh/α   predicted    -0.3689673E-04 ( -27.74%)
   displ. norm   :     0.1996247 α      lambda       -0.7218606E-04
   maximum displ.:     0.1354838 α      in ANC's #2, #1, #3, ...

........................................................................
.............................. CYCLE   28 ..............................
........................................................................

 iter      E             dE          RMSdq      gap      omega  full diag
   1    -28.2115976 -0.282116E+02  0.578E-02    2.80       0.0  T
   2    -28.2115994 -0.182232E-05  0.344E-02    2.80       1.0  T
   3    -28.2115990  0.431905E-06  0.119E-02    2.79       2.0  T
   4    -28.2115995 -0.500696E-06  0.524E-03    2.80       4.6  T
   5    -28.2115997 -0.214769E-06  0.234E-03    2.80      10.4  T
   6    -28.2115997 -0.162138E-07  0.794E-04    2.80      30.5  T
   7    -28.2115997 -0.800053E-08  0.325E-04    2.80      74.6  T
     SCC iter.                  ...        0 min,  2.727 sec
     gradient                   ...        0 min,  0.495 sec
 * total energy  :   -27.8890459 Eh     change       -0.4642519E-04 Eh
   gradient norm :     0.0046598 Eh/α   predicted    -0.3753017E-04 ( -19.16%)
   displ. norm   :     0.1229468 α      lambda       -0.7948879E-04
   maximum displ.:     0.0839893 α      in ANC's #1, #2, #4, ...

........................................................................
.............................. CYCLE   29 ..............................
........................................................................

 iter      E             dE          RMSdq      gap      omega  full diag
   1    -28.2129067 -0.282129E+02  0.439E-02    2.80       0.0  T
   2    -28.2129078 -0.108983E-05  0.248E-02    2.80       1.0  T
   3    -28.2129071  0.711521E-06  0.102E-02    2.80       2.4  T
   4    -28.2129080 -0.857299E-06  0.412E-03    2.80       5.9  T
   5    -28.2129081 -0.131164E-06  0.193E-03    2.80      12.6  T
   6    -28.2129081 -0.815290E-08  0.877E-04    2.80      27.6  T
   7    -28.2129081 -0.876726E-08  0.275E-04    2.80      88.1  T
     SCC iter.                  ...        0 min,  4.733 sec
     gradient                   ...        0 min,  0.299 sec
 * total energy  :   -27.8890906 Eh     change       -0.4467920E-04 Eh
   gradient norm :     0.0024311 Eh/α   predicted    -0.4034492E-04 (  -9.70%)
   displ. norm   :     0.1755720 α      lambda       -0.3763171E-04
   maximum displ.:     0.1183171 α      in ANC's #2, #1, #5, ...

........................................................................
.............................. CYCLE   30 ..............................
........................................................................

 iter      E             dE          RMSdq      gap      omega  full diag
   1    -28.2119700 -0.282120E+02  0.499E-02    2.81       0.0  T
   2    -28.2119708 -0.724564E-06  0.291E-02    2.80       1.0  T
   3    -28.2119695  0.129796E-05  0.111E-02    2.81       2.2  T
   4    -28.2119711 -0.159245E-05  0.293E-03    2.81       8.3  T
   5    -28.2119711 -0.311477E-07  0.986E-04    2.81      24.6  T
   6    -28.2119711 -0.605212E-09  0.354E-04    2.81      68.5  T
     SCC iter.                  ...        0 min,  2.970 sec
     gradient                   ...        0 min,  0.359 sec
 * total energy  :   -27.8891089 Eh     change       -0.1836971E-04 Eh
   gradient norm :     0.0036780 Eh/α   predicted    -0.1939623E-04 (   5.59%)
   displ. norm   :     0.0389271 α      lambda       -0.3019288E-04
   maximum displ.:     0.0229738 α      in ANC's #1, #2, #3, ...

........................................................................
.............................. CYCLE   31 ..............................
........................................................................

 iter      E             dE          RMSdq      gap      omega  full diag
   1    -28.2126637 -0.282127E+02  0.173E-02    2.81       0.0  T
   2    -28.2126643 -0.579458E-06  0.113E-02    2.81       2.2  T
   3    -28.2126644 -0.718000E-07  0.622E-03    2.81       3.9  T
   4    -28.2126645 -0.140602E-06  0.202E-03    2.81      12.0  T
   5    -28.2126646 -0.359039E-07  0.699E-04    2.81      34.7  T
   6    -28.2126646 -0.392816E-09  0.116E-04    2.81     208.5  T
     SCC iter.                  ...        0 min,  3.127 sec
     gradient                   ...        0 min,  0.448 sec
 * total energy  :   -27.8891310 Eh     change       -0.2202949E-04 Eh
   gradient norm :     0.0020370 Eh/α   predicted    -0.1511875E-04 ( -31.37%)
   displ. norm   :     0.1339642 α      lambda       -0.2758117E-04
   maximum displ.:     0.0871080 α      in ANC's #1, #2, #5, ...

........................................................................
.............................. CYCLE   32 ..............................
........................................................................

 iter      E             dE          RMSdq      gap      omega  full diag
   1    -28.2126656 -0.282127E+02  0.391E-02    2.81       0.0  T
   2    -28.2126660 -0.469899E-06  0.231E-02    2.81       1.0  T
   3    -28.2126647  0.128443E-05  0.114E-02    2.81       2.1  T
   4    -28.2126664 -0.164260E-05  0.239E-03    2.81      10.1  T
   5    -28.2126664 -0.112843E-07  0.886E-04    2.81      27.4  T
   6    -28.2126664 -0.993261E-09  0.340E-04    2.81      71.4  T
     SCC iter.                  ...        0 min,  4.163 sec
     gradient                   ...        0 min,  0.379 sec
 * total energy  :   -27.8891485 Eh     change       -0.1756072E-04 Eh
   gradient norm :     0.0016644 Eh/α   predicted    -0.1403922E-04 ( -20.05%)
   displ. norm   :     0.0936590 α      lambda       -0.1061594E-04
   maximum displ.:     0.0581012 α      in ANC's #1, #2, #6, ...

........................................................................
.............................. CYCLE   33 ..............................
........................................................................

 iter      E             dE          RMSdq      gap      omega  full diag
   1    -28.2130453 -0.282130E+02  0.311E-02    2.81       0.0  T
   2    -28.2130455 -0.237140E-06  0.170E-02    2.81       1.4  T
   3    -28.2130455  0.230743E-07  0.424E-03    2.81       5.7  T
   4    -28.2130455 -0.288250E-07  0.249E-03    2.81       9.7  T
   5    -28.2130456 -0.395974E-07  0.105E-03    2.81      23.1  T
   6    -28.2130456 -0.887638E-08  0.313E-04    2.81      77.4  T
   7    -28.2130456 -0.734254E-09  0.176E-04    2.81     138.1  T
     SCC iter.                  ...        0 min,  3.490 sec
     gradient                   ...        0 min,  0.451 sec
 * total energy  :   -27.8891566 Eh     change       -0.8106365E-05 Eh
   gradient norm :     0.0007328 Eh/α   predicted    -0.5327790E-05 ( -34.28%)
   displ. norm   :     0.1124749 α      lambda       -0.4637586E-05
   maximum displ.:     0.0741945 α      in ANC's #1, #2, #6, ...

........................................................................
.............................. CYCLE   34 ..............................
........................................................................

 iter      E             dE          RMSdq      gap      omega  full diag
   1    -28.2123621 -0.282124E+02  0.345E-02    2.81       0.0  T
   2    -28.2123627 -0.529481E-06  0.198E-02    2.81       1.2  T
   3    -28.2123626  0.543786E-07  0.573E-03    2.81       4.2  T
   4    -28.2123627 -0.924143E-07  0.261E-03    2.81       9.3  T
   5    -28.2123627 -0.338409E-07  0.129E-03    2.81      18.8  T
   6    -28.2123628 -0.108483E-07  0.249E-04    2.81      97.6  T
   7    -28.2123628 -0.170708E-10  0.181E-04    2.81     134.0  T
     SCC iter.                  ...        0 min,  2.933 sec
     gradient                   ...        0 min,  0.264 sec
 * total energy  :   -27.8891561 Eh     change        0.5550789E-06 Eh
   gradient norm :     0.0017993 Eh/α   predicted    -0.2331324E-05 (-520.00%)
   displ. norm   :     0.0513059 α      lambda       -0.6630341E-05
   maximum displ.:     0.0356125 α      in ANC's #2, #1, #5, ...

........................................................................
.............................. CYCLE   35 ..............................
........................................................................

 iter      E             dE          RMSdq      gap      omega  full diag
   1    -28.2131241 -0.282131E+02  0.167E-02    2.81       0.0  T
   2    -28.2131242 -0.121863E-06  0.966E-03    2.81       2.5  T
   3    -28.2131241  0.118359E-06  0.353E-03    2.81       6.9  T
   4    -28.2131243 -0.145287E-06  0.107E-03    2.81      22.6  T
   5    -28.2131243 -0.778337E-08  0.390E-04    2.81      62.1  T
   6    -28.2131243 -0.238877E-09  0.260E-04    2.81      93.3  T
     SCC iter.                  ...        0 min,  1.054 sec
     gradient                   ...        0 min,  0.277 sec
 * total energy  :   -27.8891600 Eh     change       -0.3909125E-05 Eh
   gradient norm :     0.0005349 Eh/α   predicted    -0.3319638E-05 ( -15.08%)
   displ. norm   :     0.0156991 α      lambda       -0.6847997E-06
   maximum displ.:     0.0115281 α      in ANC's #1, #2, #5, ...

   *** GEOMETRY OPTIMIZATION CONVERGED AFTER 35 ITERATIONS ***

------------------------------------------------------------------------
 total energy gain   :        -0.0219503 Eh      -13.7740 kcal/mol
 total RMSD          :         0.9044803 a0        0.4786 Å
 total power (kW/mol):        -1.6465862 (step)   -0.3602 (real)
------------------------------------------------------------------------

 ANCopt (total)                0 d,  0 h,  2 min, 40.006 sec
 optimizer setup                ...        0 min,  0.000 sec (  0.000%)
 model hessian                  ...        0 min,  0.004 sec (  0.002%)
 ANC generation                 ...        0 min,  0.001 sec (  0.001%)
 coordinate transformation      ...        0 min,  0.000 sec (  0.000%)
 single point calculation       ...        2 min, 38.558 sec ( 99.095%)
 optimization log               ...        0 min,  0.003 sec (  0.002%)
 hessian update                 ...        0 min,  1.425 sec (  0.891%)
 rational function              ...        0 min,  0.010 sec (  0.006%)

================
 final structure:
================
17
 xtb: 6.7.1 (edcfbbe)
O           -0.01493184214855       -2.08832305270544       -0.66141867328939
S           -0.09249560997749       -1.14167565052218        0.44662445793991
N           -1.41513370792975       -0.01610178983427        0.14565704861979
C           -2.70630937058304       -0.65446651021650        0.24021539874994
N           -1.38935020273263        1.18152613999010       -0.38453147209965
C           -0.29040262587244        1.81119614559353       -0.58820547019712
C            1.01997255986755        1.28788826399613       -0.33456267069559
C            1.23972409564542        0.05588442865774        0.13558593450249
C            2.57239116573664       -0.55631217215969        0.38943165053032
H           -3.47537055560592        0.08214368142000        0.02006440469715
H           -2.84629374825703       -1.04721444023442        1.24850038351484
H           -2.77818085093430       -1.47804882230269       -0.47443825931008
H           -0.39935065681789        2.80262563328673       -0.99847384855638
H            1.85981253820336        1.93577881024415       -0.55215329878394
H            2.67076793599216       -1.46871925925847       -0.19949431907772
H            3.37891527595620        0.12473417121399        0.12634952535352
H            2.66623159945784       -0.83091457716886        1.44085120810184

 Bond Distances (Angstroems)
 ---------------------------
O1-S2=1.4594         S2-O1=1.4594         S2-N3=1.7626         S2-C8=1.8182         N3-S2=1.7626         N3-C4=1.4435         
N3-N5=1.3100         C4-N3=1.4435         C4-H10=1.0874        C4-H11=1.0911        C4-H12=1.0928        N5-N3=1.3100         
N5-C6=1.2828         C6-N5=1.2828         C6-C7=1.4336         C6-H13=1.0785        C7-C6=1.4336         C7-C8=1.3368         
C7-H14=1.0828        C8-S2=1.8182         C8-C7=1.3368         C8-C9=1.4884         C9-C8=1.4884         C9-H15=1.0904        
C9-H16=1.0879        C9-H17=1.0907        H10-C4=1.0874        H11-C4=1.0911        H12-C4=1.0928        H13-C6=1.0785        
H14-C7=1.0828        H15-C9=1.0904        H16-C9=1.0879        H17-C9=1.0907        
 C  H  Rav=1.0877 sigma=0.0045  Rmin=1.0785  Rmax=1.0928     8
 C  C  Rav=1.4196 sigma=0.0626  Rmin=1.3368  Rmax=1.4884     3
 N  C  Rav=1.3631 sigma=0.0803  Rmin=1.2828  Rmax=1.4435     2
 N  N  Rav=1.3100 sigma=0.0000  Rmin=1.3100  Rmax=1.3100     1
 S  C  Rav=1.8182 sigma=0.0000  Rmin=1.8182  Rmax=1.8182     1
 S  N  Rav=1.7626 sigma=0.0000  Rmin=1.7626  Rmax=1.7626     1
 S  O  Rav=1.4594 sigma=0.0000  Rmin=1.4594  Rmax=1.4594     1

 selected bond angles (degree)
 --------------------
N3-S2-O1=108.93                C8-S2-O1=104.98                C8-S2-N3= 95.74                C4-N3-S2=112.19                
N5-N3-S2=129.65                N5-N3-C4=116.64                H10-C4-N3=108.65               H11-C4-N3=109.54               
H11-C4-H10=109.89              H12-C4-N3=110.44               H12-C4-H10=109.37              H12-C4-H11=108.94              
C6-N5-N3=122.00                C7-C6-N5=125.15                H13-C6-N5=115.16               H13-C6-C7=119.68               
C8-C7-C6=123.29                H14-C7-C6=117.06               H14-C7-C8=119.64               C7-C8-S2=123.14                
C9-C8-S2=110.85                C9-C8-C7=125.89                H15-C9-C8=109.44               H16-C9-C8=111.41               
H16-C9-H15=109.05              H17-C9-C8=110.18               H17-C9-H15=107.59              H17-C9-H16=109.08              

 selected dihedral angles (degree)
 ---------------------------------
C4-N3-S2-O1= 69.12            C4-N3-S2-C8=177.13            N5-N3-S2-O1=263.88            N5-N3-S2-C8= 11.88            
H10-C4-N3-S2=181.45           H10-C4-N3-N5=348.78           H11-C4-N3-S2= 61.40           H11-C4-N3-N5=228.73           
H12-C4-N3-S2=301.41           H12-C4-N3-N5=108.73           C6-N5-N3-S2=348.74            C6-N5-N3-C4=184.04            
C7-C6-N5-N3=  3.10            H13-C6-N5-N3=182.02           C8-C7-C6-N5=  0.87            C8-C7-C6-H13=182.00           
H14-C7-C6-N5=180.17           H14-C7-C6-H13=  1.29          C7-C8-S2-O1=104.19            C7-C8-S2-N3=352.81            
C9-C8-S2-O1=287.86            C9-C8-S2-N3=176.49            S2-C8-C7-C6=  2.73            S2-C8-C7-H14=183.45           
C9-C8-C7-C6=178.49            C9-C8-C7-H14=359.21           H15-C9-C8-S2= 54.55           H15-C9-C8-C7=238.35           
H16-C9-C8-S2=175.22           H16-C9-C8-C7=359.02           H17-C9-C8-S2=296.44           H17-C9-C8-C7=120.24           
           -------------------------------------------------
          |                Final Singlepoint                |
           -------------------------------------------------

          ...................................................
          :                      SETUP                      :
          :.................................................:
          :  # basis functions                  50          :
          :  # atomic orbitals                  49          :
          :  # shells                           27          :
          :  # electrons                        50          :
          :  max. iterations                   250          :
          :  Hamiltonian                  GFN2-xTB          :
          :  restarted?                      false          :
          :  GBSA solvation                  false          :
          :  PC potential                    false          :
          :  electronic temp.          300.0000000     K    :
          :  accuracy                    1.0000000          :
          :  -> integral cutoff          0.2500000E+02      :
          :  -> integral neglect         0.1000000E-07      :
          :  -> SCF convergence          0.1000000E-05 Eh   :
          :  -> wf. convergence          0.1000000E-03 e    :
          :  Broyden damping             0.4000000          :
          :  net charge                          0          :
          :  unpaired electrons                  0          :
          ...................................................

 iter      E             dE          RMSdq      gap      omega  full diag
   1    -28.2131243 -0.282131E+02  0.794E-05    2.81       0.0  T
   2    -28.2131243 -0.364508E-11  0.516E-05    2.81     470.1  T
   3    -28.2131243 -0.508393E-11  0.357E-05    2.81     679.1  T

   *** convergence criteria satisfied after 3 iterations ***

         #    Occupation            Energy/Eh            Energy/eV
      -------------------------------------------------------------
         1        2.0000           -0.7605695             -20.6961
       ...           ...                  ...                  ...
        19        2.0000           -0.4765069             -12.9664
        20        2.0000           -0.4675142             -12.7217
        21        2.0000           -0.4446063             -12.0984
        22        2.0000           -0.4344676             -11.8225
        23        2.0000           -0.3935196             -10.7082
        24        2.0000           -0.3821080             -10.3977
        25        2.0000           -0.3696418             -10.0585 (HOMO)
        26                         -0.2662545              -7.2452 (LUMO)
        27                         -0.2193285              -5.9682
        28                         -0.1774421              -4.8284
        29                         -0.1406989              -3.8286
        30                         -0.0637720              -1.7353
       ...                                ...                  ...
        49                          0.9352463              25.4493
      -------------------------------------------------------------
                  HL-Gap            0.1033873 Eh            2.8133 eV
             Fermi-level           -0.3179482 Eh           -8.6518 eV

 SCC (total)                   0 d,  0 h,  0 min,  2.418 sec
 SCC setup                      ...        0 min,  0.016 sec (  0.647%)
 Dispersion                     ...        0 min,  0.109 sec (  4.523%)
 classical contributions        ...        0 min,  0.017 sec (  0.700%)
 integral evaluation            ...        0 min,  0.107 sec (  4.405%)
 iterations                     ...        0 min,  1.828 sec ( 75.602%)
 molecular gradient             ...        0 min,  0.341 sec ( 14.115%)
 printout                       ...        0 min,  0.000 sec (  0.007%)

         :::::::::::::::::::::::::::::::::::::::::::::::::::::
         ::                     SUMMARY                     ::
         :::::::::::::::::::::::::::::::::::::::::::::::::::::
         :: total energy             -27.889159993411 Eh    ::
         :: gradient norm              0.000536668661 Eh/a0 ::
         :: HOMO-LUMO gap              2.813312614230 eV    ::
         ::.................................................::
         :: SCC energy               -28.213082731118 Eh    ::
         :: -> isotropic ES            0.043014147223 Eh    ::
         :: -> anisotropic ES          0.000505706251 Eh    ::
         :: -> anisotropic XC          0.016674983202 Eh    ::
         :: -> dispersion             -0.015133104781 Eh    ::
         :: repulsion energy           0.323922737707 Eh    ::
         :: add. restraining           0.000000000000 Eh    ::
         :: total charge               0.000000000000 e     ::
         :::::::::::::::::::::::::::::::::::::::::::::::::::::

           -------------------------------------------------
          |                Property Printout                |
           -------------------------------------------------

    * Orbital Energies and Occupations

         #    Occupation            Energy/Eh            Energy/eV
      -------------------------------------------------------------
         1        2.0000           -0.7605695             -20.6961
       ...           ...                  ...                  ...
        13        2.0000           -0.5095747             -13.8662
        14        2.0000           -0.5081411             -13.8272
        15        2.0000           -0.4951793             -13.4745
        16        2.0000           -0.4897901             -13.3279
        17        2.0000           -0.4857606             -13.2182
        18        2.0000           -0.4831008             -13.1458
        19        2.0000           -0.4765069             -12.9664
        20        2.0000           -0.4675142             -12.7217
        21        2.0000           -0.4446063             -12.0984
        22        2.0000           -0.4344676             -11.8225
        23        2.0000           -0.3935196             -10.7082
        24        2.0000           -0.3821080             -10.3977
        25        2.0000           -0.3696418             -10.0585 (HOMO)
        26                         -0.2662545              -7.2452 (LUMO)
        27                         -0.2193285              -5.9682
        28                         -0.1774421              -4.8284
        29                         -0.1406989              -3.8286
        30                         -0.0637720              -1.7353
        31                         -0.0248685              -0.6767
        32                          0.0492434               1.3400
        33                          0.0902603               2.4561
        34                          0.0995838               2.7098
        35                          0.1291356               3.5140
        36                          0.1404502               3.8218
       ...                                ...                  ...
        49                          0.9352463              25.4493
      -------------------------------------------------------------
                  HL-Gap            0.1033873 Eh            2.8133 eV
             Fermi-level           -0.3179482 Eh           -8.6518 eV

     #   Z          covCN         q      C6AA      α(0)
     1   8 O        0.860    -0.489    23.550     6.506
     2  16 S        2.907     0.468   123.439    18.699
     3   7 N        2.834    -0.065    22.498     7.045
     4   6 C        3.777    -0.053    21.559     6.615
     5   7 N        1.922    -0.145    24.919     7.402
     6   6 C        2.862     0.019    27.588     8.609
     7   6 C        2.921    -0.045    29.129     8.851
     8   6 C        2.937    -0.030    28.755     8.794
     9   6 C        3.802    -0.111    22.625     6.772
    10   1 H        0.925     0.080     1.983     2.202
    11   1 H        0.924     0.053     2.279     2.361
    12   1 H        0.924     0.064     2.154     2.295
    13   1 H        0.926     0.043     2.406     2.425
    14   1 H        0.925     0.042     2.428     2.437
    15   1 H        0.924     0.068     2.103     2.268
    16   1 H        0.925     0.052     2.295     2.369
    17   1 H        0.924     0.052     2.300     2.372

 Mol. C6AA /au·bohr⁶  :       3958.737027
 Mol. C8AA /au·bohr⁸  :     104141.638797
 Mol. α(0) /au        :         98.023010


Wiberg/Mayer (AO) data.
largest (>0.10) Wiberg bond orders for each atom

 ---------------------------------------------------------------------------
     #   Z sym  total        # sym  WBO       # sym  WBO       # sym  WBO
 ---------------------------------------------------------------------------
     1   8 O    2.052 --     2 S    1.837
     2  16 S    3.914 --     1 O    1.837     8 C    0.944     3 N    0.934
     3   7 N    3.496 --     5 N    1.221     4 C    0.996     2 S    0.934
                             6 C    0.144
     4   6 C    3.968 --     3 N    0.996    10 H    0.977    11 H    0.976
                            12 H    0.973
     5   7 N    3.118 --     6 C    1.640     3 N    1.221
     6   6 C    3.979 --     5 N    1.640     7 C    1.157    13 H    0.961
                             3 N    0.144
     7   6 C    3.992 --     8 C    1.748     6 C    1.157    14 H    0.955
     8   6 C    3.975 --     7 C    1.748     9 C    1.035     2 S    0.944
     9   6 C    3.995 --     8 C    1.035    16 H    0.979    17 H    0.965
                            15 H    0.963
    10   1 H    0.993 --     4 C    0.977
    11   1 H    0.997 --     4 C    0.976
    12   1 H    0.996 --     4 C    0.973
    13   1 H    0.998 --     6 C    0.961
    14   1 H    0.998 --     7 C    0.955
    15   1 H    0.995 --     9 C    0.963
    16   1 H    0.997 --     9 C    0.979
    17   1 H    0.997 --     9 C    0.965
 ---------------------------------------------------------------------------

Topologies differ in total number of bonds
Writing topology from bond orders to xtbtopo.mol

molecular dipole:
                 x           y           z       tot (Debye)
 q only:       -0.044       0.584       1.062
   full:        0.297       0.650       0.821       2.767
molecular quadrupole (traceless):
                xx          xy          yy          xz          yz          zz
 q only:        8.104       2.157      -6.789      -0.555      -5.611      -1.315
  q+dip:        7.625       3.454      -6.527      -0.779      -5.774      -1.098
   full:        7.836       3.643      -7.079      -0.797      -5.133      -0.756

           -------------------------------------------------
          |                Geometry Summary                 |
           -------------------------------------------------

      molecular mass/u    :      144.1948042
   center of mass at/Å    :       -0.1342422      -0.2096003      -0.0061256
  moments of inertia/u·Å² :        0.2395746E+03   0.3350519E+03   0.5253093E+03
rotational constants/cm⁻¹ :        0.7036486E-01   0.5031350E-01   0.3209087E-01

 * 16 selected distances

     #   Z          #   Z                                           value/Å
     1   8 O        2  16 S                                       1.4594237
     2  16 S        3   7 N                                       1.7626316 (max)
     3   7 N        4   6 C                                       1.4434631
     3   7 N        5   7 N                                       1.3099915
     5   7 N        6   6 C                                       1.2828303
     6   6 C        7   6 C                                       1.4336211
     7   6 C        8   6 C                                       1.3368486
     8   6 C        9   6 C                                       1.4883629
     4   6 C       10   1 H                                       1.0874357
     4   6 C       11   1 H                                       1.0910937
     4   6 C       12   1 H                                       1.0927870
     6   6 C       13   1 H                                       1.0784816 (min)
     7   6 C       14   1 H                                       1.0827923
     9   6 C       15   1 H                                       1.0904122
     9   6 C       16   1 H                                       1.0878960
     9   6 C       17   1 H                                       1.0907318

 * 6 distinct bonds (by element types)

   Z      Z             #   av. dist./Å        max./Å        min./Å
   1 H    6 C           8     1.0877038     1.0927870     1.0784816
   6 C    6 C           3     1.4196109     1.4883629     1.3368486
   6 C    7 N           2     1.3631467     1.4434631     1.2828303
   7 N    7 N           1     1.3099915     1.3099915     1.3099915
   7 N   16 S           1     1.7626316     1.7626316     1.7626316
   8 O   16 S           1     1.4594237     1.4594237     1.4594237


optimized geometry written to: xtbopt.xyz


           -------------------------------------------------
          | TOTAL ENERGY              -27.889159993411 Eh   |
          | GRADIENT NORM               0.000536668661 Eh/α |
          | HOMO-LUMO GAP               2.813312614230 eV   |
           -------------------------------------------------

------------------------------------------------------------------------
 * finished run on 2026/08/20 at 02:33:41.412     
------------------------------------------------------------------------
 total:
 * wall-time:     0 d,  0 h,  2 min, 49.854 sec
 *  cpu-time:     0 d,  0 h,  3 min,  0.804 sec
 * ratio c/w:     1.064 speedup
 SCF:
 * wall-time:     0 d,  0 h,  0 min,  6.861 sec
 *  cpu-time:     0 d,  0 h,  0 min,  7.434 sec
 * ratio c/w:     1.083 speedup
 ANC optimizer:
 * wall-time:     0 d,  0 h,  2 min, 42.541 sec
 *  cpu-time:     0 d,  0 h,  2 min, 52.974 sec
 * ratio c/w:     1.064 speedup

