      -----------------------------------------------------------      
     |                   =====================                   |     
     |                           x T B                           |     
     |                   =====================                   |     
     |                         S. Grimme                         |     
     |          Mulliken Center for Theoretical Chemistry        |     
     |                    University of Bonn                     |     
      -----------------------------------------------------------      

   * xtb version 6.7.1 (edcfbbe) compiled by 'conda@3ef47c1a292c' on 2024-11-25

   xtb is free software: you can redistribute it and/or modify it under
   the terms of the GNU Lesser General Public License as published by
   the Free Software Foundation, either version 3 of the License, or
   (at your option) any later version.
   
   xtb is distributed in the hope that it will be useful,
   but WITHOUT ANY WARRANTY; without even the implied warranty of
   MERCHANTABILITY or FITNESS FOR A PARTICULAR PURPOSE.  See the
   GNU Lesser General Public License for more details.
   
   Cite this work as:
   * C. Bannwarth, E. Caldeweyher, S. Ehlert, A. Hansen, P. Pracht,
     J. Seibert, S. Spicher, S. Grimme, WIREs Comput. Mol. Sci., 2020, 11,
     e01493. DOI: 10.1002/wcms.1493
   
   for GFN2-xTB:
   * C. Bannwarth, S. Ehlert and S. Grimme., J. Chem. Theory Comput., 2019,
     15, 1652-1671. DOI: 10.1021/acs.jctc.8b01176
   for GFN1-xTB:
   * S. Grimme, C. Bannwarth, P. Shushkov, J. Chem. Theory Comput., 2017,
     13, 1989-2009. DOI: 10.1021/acs.jctc.7b00118
   for GFN0-xTB:
   * P. Pracht, E. Caldeweyher, S. Ehlert, S. Grimme, ChemRxiv, 2019, preprint.
     DOI: 10.26434/chemrxiv.8326202.v1
   for GFN-FF:
   * S. Spicher and S. Grimme, Angew. Chem. Int. Ed., 2020, 59, 15665-15673.
     DOI: 10.1002/anie.202004239
   
   for ALPB and GBSA implicit solvation:
   * S. Ehlert, M. Stahn, S. Spicher, S. Grimme, J. Chem. Theory Comput.,
     2021, 17, 4250-4261. DOI: 10.1021/acs.jctc.1c00471
   
   for ddCOSMO and CPCM-X implicit solvation:
   * M. Stahn, S. Ehlert, S. Grimme, J. Phys. Chem. A,
     2023, XX, XXXX-XXXX. DOI: 10.1021/acs.jpca.3c04382
   
   for DFT-D4:
   * E. Caldeweyher, C. Bannwarth and S. Grimme, J. Chem. Phys., 2017,
     147, 034112. DOI: 10.1063/1.4993215
   * E. Caldeweyher, S. Ehlert, A. Hansen, H. Neugebauer, S. Spicher,
     C. Bannwarth and S. Grimme, J. Chem. Phys., 2019, 150, 154122.
     DOI: 10.1063/1.5090222
   * E. Caldeweyher, J.-M. Mewes, S. Ehlert and S. Grimme, Phys. Chem. Chem. Phys.
     2020, 22, 8499-8512. DOI: 10.1039/D0CP00502A
   
   for sTDA-xTB:
   * S. Grimme and C. Bannwarth, J. Chem. Phys., 2016, 145, 054103.
     DOI: 10.1063/1.4959605
   
   in the mass-spec context:
   * V. Asgeirsson, C. Bauer and S. Grimme, Chem. Sci., 2017, 8, 4879.
     DOI: 10.1039/c7sc00601b
   * J. Koopman and S. Grimme, ACS Omega 2019, 4, 12, 15120-15133.
     DOI: 10.1021/acsomega.9b02011
   
   for metadynamics refer to:
   * S. Grimme, J. Chem. Theory Comput., 2019, 155, 2847-2862
     DOI: 10.1021/acs.jctc.9b00143
   
   for SPH calculations refer to:
   * S. Spicher and S. Grimme, J. Chem. Theory Comput., 2021, 17, 1701-1714
     DOI: 10.1021/acs.jctc.0c01306
   
   for ONIOM refer to:
   * C. Plett, A. Katbashev, S. Ehlert, S. Grimme, M. Bursch,
     Phys. Chem. Chem. Phys., 2023, 25, 17860-17868. DOI: 10.1039/D3CP02178E
   
   for DIPRO refer to:
   * J. Kohn, N. Gildemeister, S. Grimme, D. Fazzi, A. Hansen,
     J. Chem. Phys., 2023, just accepted.
   
   for PTB refer to:
   * S. Grimme, M. Mueller, A. Hansen, J. Chem. Phys., 2023, 158, 124111.
     DOI: 10.1063/5.0137838
   
   with help from (in alphabetical order)
   P. Atkinson, C. Bannwarth, F. Bohle, G. Brandenburg, E. Caldeweyher
   M. Checinski, S. Dohm, S. Ehlert, S. Ehrlich, I. Gerasimov, C. Hölzer
   A. Katbashev, J. Kohn, J. Koopman, C. Lavigne, S. Lehtola, F. März, M. Müller,
   F. Musil, H. Neugebauer, J. Pisarek, C. Plett, P. Pracht, F. Pultar,
   J. Seibert, P. Shushkov, S. Spicher, M. Stahn, M. Steiner, T. Strunk,
   J. Stückrath, T. Rose, and J. Unsleber
   
 * started run on 2026/08/20 at 02:53:06.570     
   ID    Z sym.   atoms
    1    8 O      1
    2   16 S      2
    3    7 N      3, 5
    4    6 C      4, 6-9
    5    1 H      10-17
constraining bond 3 8 to    1.9500000 Å, actual value:    2.6558529 Å
constraining bond 2 3 to    2.1000000 Å, actual value:    1.7626316 Å
constraining bond 2 8 to    2.1000000 Å, actual value:    1.8181598 Å

           -------------------------------------------------
          |                Calculation Setup                |
           -------------------------------------------------

          program call               : /h/399/yunhengzou/micromamba/envs/el-agente/bin/xtb subA_opt.xyz --opt --gfn 2 -P 4 --chrg 0 --uhf 0 --input detailed_input.inp
          coordinate file            : subA_opt.xyz
          omp threads                :                     4


           -------------------------------------------------
          |                 G F N 2 - x T B                 |
           -------------------------------------------------

        Reference                      10.1021/acs.jctc.8b01176
      * Hamiltonian:
        H0-scaling (s, p, d)           1.850000    2.230000    2.230000
        zeta-weighting                 0.500000
      * Dispersion:
        s8                             2.700000
        a1                             0.520000
        a2                             5.000000
        s9                             5.000000
      * Repulsion:
        kExp                           1.500000    1.000000
        rExp                           1.000000
      * Coulomb:
        alpha                          2.000000
        third order                    shell-resolved
        anisotropic                    true
        a3                             3.000000
        a5                             4.000000
        cn-shift                       1.200000
        cn-exp                         4.000000
        max-rad                        5.000000


          ...................................................
          :                      SETUP                      :
          :.................................................:
          :  # basis functions                  50          :
          :  # atomic orbitals                  49          :
          :  # shells                           27          :
          :  # electrons                        50          :
          :  max. iterations                   250          :
          :  Hamiltonian                  GFN2-xTB          :
          :  restarted?                      false          :
          :  GBSA solvation                  false          :
          :  PC potential                    false          :
          :  electronic temp.          300.0000000     K    :
          :  accuracy                    1.0000000          :
          :  -> integral cutoff          0.2500000E+02      :
          :  -> integral neglect         0.1000000E-07      :
          :  -> SCF convergence          0.1000000E-05 Eh   :
          :  -> wf. convergence          0.1000000E-03 e    :
          :  Broyden damping             0.4000000          :
          :  net charge                          0          :
          :  unpaired electrons                  0          :
          ...................................................

 iter      E             dE          RMSdq      gap      omega  full diag
   1    -28.1490339 -0.281490E+02  0.468E+00    2.89       0.0  T
   2    -28.1916941 -0.426602E-01  0.339E+00    2.97       1.0  T
   3    -28.2000316 -0.833748E-02  0.156E+00    2.80       1.0  T
   4    -28.2104063 -0.103747E-01  0.669E-01    2.84       1.0  T
   5    -28.2129386 -0.253234E-02  0.283E-01    2.81       1.0  T
   6    -28.2126742  0.264404E-03  0.176E-01    2.82       1.0  T
   7    -28.2131231 -0.448909E-03  0.329E-02    2.81       1.0  T
   8    -28.2131238 -0.728699E-06  0.158E-02    2.81       1.5  T
   9    -28.2131242 -0.416133E-06  0.392E-03    2.81       6.2  T
  10    -28.2131243 -0.210077E-07  0.183E-03    2.81      13.2  T
  11    -28.2131243 -0.499542E-08  0.639E-04    2.81      37.9  T
  12    -28.2131243 -0.113783E-08  0.192E-04    2.81     126.5  T

   *** convergence criteria satisfied after 12 iterations ***

         #    Occupation            Energy/Eh            Energy/eV
      -------------------------------------------------------------
         1        2.0000           -0.7605704             -20.6962
       ...           ...                  ...                  ...
        19        2.0000           -0.4765066             -12.9664
        20        2.0000           -0.4675149             -12.7217
        21        2.0000           -0.4446061             -12.0983
        22        2.0000           -0.4344681             -11.8225
        23        2.0000           -0.3935196             -10.7082
        24        2.0000           -0.3821077             -10.3977
        25        2.0000           -0.3696417             -10.0585 (HOMO)
        26                         -0.2662549              -7.2452 (LUMO)
        27                         -0.2193276              -5.9682
        28                         -0.1774429              -4.8285
        29                         -0.1406992              -3.8286
        30                         -0.0637720              -1.7353
       ...                                ...                  ...
        49                          0.9352473              25.4494
      -------------------------------------------------------------
                  HL-Gap            0.1033868 Eh            2.8133 eV
             Fermi-level           -0.3179483 Eh           -8.6518 eV

 SCC (total)                   0 d,  0 h,  0 min,  1.005 sec
 SCC setup                      ...        0 min,  0.018 sec (  1.787%)
 Dispersion                     ...        0 min,  0.004 sec (  0.432%)
 classical contributions        ...        0 min,  0.012 sec (  1.222%)
 integral evaluation            ...        0 min,  0.001 sec (  0.079%)
 iterations                     ...        0 min,  0.883 sec ( 87.900%)
 molecular gradient             ...        0 min,  0.086 sec (  8.561%)
 printout                       ...        0 min,  0.000 sec (  0.017%)

         :::::::::::::::::::::::::::::::::::::::::::::::::::::
         ::                     SUMMARY                     ::
         :::::::::::::::::::::::::::::::::::::::::::::::::::::
         :: total energy             -25.419841613241 Eh    ::
         :: gradient norm              3.199256905976 Eh/a0 ::
         :: HOMO-LUMO gap              2.813298373102 eV    ::
         ::.................................................::
         :: SCC energy               -28.213082731003 Eh    ::
         :: -> isotropic ES            0.043013708813 Eh    ::
         :: -> anisotropic ES          0.000505663914 Eh    ::
         :: -> anisotropic XC          0.016675060546 Eh    ::
         :: -> dispersion             -0.015133102106 Eh    ::
         :: repulsion energy           0.323922737707 Eh    ::
         :: add. restraining           2.469318380055 Eh    ::
         :: total charge              -0.000000000000 e     ::
         :::::::::::::::::::::::::::::::::::::::::::::::::::::

      ----------------------------------------------------------- 
     |                   =====================                   |
     |                        A N C O P T                        |
     |                   =====================                   |
     |               Approximate Normal Coordinate               |
     |                Rational Function Optimizer                |
      ----------------------------------------------------------- 
      ----------------------------------------------------------- 
     |                   =====================                   |
     |                        A N C O P T                        |
     |                   =====================                   |
     |               Approximate Normal Coordinate               |
     |                Rational Function Optimizer                |
      ----------------------------------------------------------- 

          ...................................................
          :                      SETUP                      :
          :.................................................:
          :   optimization level            normal          :
          :   max. optcycles                   200          :
          :   ANC micro-cycles                  20          :
          :   degrees of freedom                45          :
          :.................................................:
          :   RF solver                   davidson          :
          :   write xtbopt.log                true          :
          :   linear?                        false          :
          :   energy convergence         0.5000000E-05 Eh   :
          :   grad. convergence          0.1000000E-02 Eh/α :
          :   maxmium RF displ.          1.0000000          :
          :   Hlow (freq-cutoff)         0.1000000E-01      :
          :   Hmax (freq-cutoff)         5.0000000          :
          :   S6 in model hess.         20.0000000          :
          ...................................................

generating ANC from exact Hessian ...
Using Lindh-Hessian (1995)
 Shifting diagonal of input Hessian by   0.60833789677720318     
 Lowest  eigenvalues of input Hessian
    0.010000    0.000000    0.000000    0.000000    0.000000    0.000000
    0.000000    0.615024    0.616889    0.620850    0.621266    0.623807
    0.643268    0.660113    0.661436    0.665520    0.673429    0.677700
 Highest eigenvalues
    2.278548    2.665175    2.808799    3.214763    6.309443    7.763692


........................................................................
.............................. CYCLE    1 ..............................
........................................................................

 iter      E             dE          RMSdq      gap      omega  full diag
   1    -28.2131243 -0.282131E+02  0.737E-05    2.81       0.0  T
   2    -28.2131243 -0.487077E-11  0.505E-05    2.81     480.6  T
   3    -28.2131243 -0.321876E-11  0.372E-05    2.81     651.7  T
     SCC iter.                  ...        0 min,  0.135 sec
     gradient                   ...        0 min,  0.087 sec
 * total energy  :   -25.4198416 Eh     change       -0.1148734E-09 Eh
   gradient norm :     3.1992321 Eh/α   predicted     0.0000000E+00 (-100.00%)
   displ. norm   :     0.6761189 α      lambda       -0.2105873E+01
   maximum displ.:     0.4268067 α      in ANC's #43, #30, #39, ...

........................................................................
.............................. CYCLE    2 ..............................
........................................................................

 iter      E             dE          RMSdq      gap      omega  full diag
   1    -28.1511348 -0.281511E+02  0.155E+00    2.76       0.0  T
   2    -28.1562428 -0.510803E-02  0.105E+00    2.59       1.0  T
   3    -28.1565837 -0.340877E-03  0.557E-01    2.64       1.0  T
   4    -28.1572034 -0.619704E-03  0.268E-01    2.64       1.0  T
   5    -28.1579175 -0.714086E-03  0.866E-02    2.63       1.0  T
   6    -28.1579248 -0.738688E-05  0.252E-02    2.64       1.0  T
   7    -28.1579269 -0.208079E-05  0.109E-02    2.64       2.2  T
   8    -28.1579269  0.383024E-07  0.574E-03    2.64       4.2  T
   9    -28.1579272 -0.271667E-06  0.165E-03    2.64      14.7  T
  10    -28.1579272 -0.362688E-08  0.988E-04    2.64      24.6  T
  11    -28.1579272 -0.227863E-08  0.259E-04    2.64      93.6  T
     SCC iter.                  ...        0 min,  0.797 sec
     gradient                   ...        0 min,  0.053 sec
 * total energy  :   -27.0650400 Eh     change       -0.1645198E+01 Eh
   gradient norm :     1.7130145 Eh/α   predicted    -0.1534272E+01 (  -6.74%)
   displ. norm   :     0.6105069 α      lambda       -0.1015934E+01
   maximum displ.:     0.3603911 α      in ANC's #43, #30, #39, ...

........................................................................
.............................. CYCLE    3 ..............................
........................................................................

 iter      E             dE          RMSdq      gap      omega  full diag
   1    -28.0439162 -0.280439E+02  0.169E+00    1.35       0.0  T
   2    -28.0461067 -0.219052E-02  0.614E-01    1.37       1.0  T
   3    -28.0459909  0.115846E-03  0.802E-01    1.37       1.0  T
   4    -28.0492004 -0.320955E-02  0.136E-01    1.36       1.0  T
   5    -28.0492060 -0.557456E-05  0.806E-02    1.36       1.0  T
   6    -28.0492031  0.287345E-05  0.535E-02    1.36       1.0  T
   7    -28.0492364 -0.332140E-04  0.128E-02    1.36       1.9  T
   8    -28.0492373 -0.897114E-06  0.562E-03    1.36       4.3  T
   9    -28.0492373 -0.696622E-07  0.264E-03    1.36       9.2  T
  10    -28.0492373 -0.170077E-07  0.674E-04    1.36      36.0  T
  11    -28.0492373 -0.170193E-08  0.415E-04    1.36      58.4  T
     SCC iter.                  ...        0 min,  0.982 sec
     gradient                   ...        0 min,  0.077 sec
 * total energy  :   -27.6384642 Eh     change       -0.5734242E+00 Eh
   gradient norm :     0.5112164 Eh/α   predicted    -0.6972957E+00 (  21.60%)
   displ. norm   :     0.3464070 α      lambda       -0.9770174E-01
   maximum displ.:     0.2539703 α      in ANC's #1, #30, #44, ...

........................................................................
.............................. CYCLE    4 ..............................
........................................................................

 iter      E             dE          RMSdq      gap      omega  full diag
   1    -28.0199129 -0.280199E+02  0.711E-01    1.37       0.0  T
   2    -28.0199856 -0.726948E-04  0.856E-01    1.39       1.0  T
   3    -28.0249535 -0.496787E-02  0.243E-01    1.37       1.0  T
   4    -28.0250030 -0.494575E-04  0.879E-02    1.37       1.0  T
   5    -28.0250129 -0.996927E-05  0.498E-02    1.37       1.0  T
   6    -28.0250283 -0.153361E-04  0.169E-02    1.37       1.4  T
   7    -28.0250311 -0.278886E-05  0.757E-03    1.37       3.2  T
   8    -28.0250318 -0.729019E-06  0.279E-03    1.37       8.7  T
   9    -28.0250318 -0.167860E-07  0.109E-03    1.37      22.2  T
  10    -28.0250318 -0.474492E-08  0.378E-04    1.37      64.2  T
  11    -28.0250318  0.224105E-10  0.186E-04    1.37     130.3  T
     SCC iter.                  ...        0 min,  0.715 sec
     gradient                   ...        0 min,  0.045 sec
 * total energy  :   -27.6938365 Eh     change       -0.5537228E-01 Eh
   gradient norm :     0.1600359 Eh/α   predicted    -0.5471288E-01 (  -1.19%)
   displ. norm   :     0.2030410 α      lambda       -0.2126110E-01
   maximum displ.:     0.1173413 α      in ANC's #1, #26, #25, ...

........................................................................
.............................. CYCLE    5 ..............................
........................................................................

 iter      E             dE          RMSdq      gap      omega  full diag
   1    -28.0220514 -0.280221E+02  0.346E-01    1.39       0.0  T
   2    -28.0222246 -0.173211E-03  0.210E-01    1.41       1.0  T
   3    -28.0223550 -0.130400E-03  0.139E-01    1.40       1.0  T
   4    -28.0223563 -0.125231E-05  0.742E-02    1.40       1.0  T
   5    -28.0224434 -0.871631E-04  0.162E-02    1.41       1.5  T
   6    -28.0224465 -0.312100E-05  0.782E-03    1.41       3.1  T
   7    -28.0224467 -0.203252E-06  0.347E-03    1.41       7.0  T
   8    -28.0224468 -0.676547E-07  0.236E-03    1.41      10.3  T
   9    -28.0224468 -0.184672E-07  0.786E-04    1.41      30.9  T
  10    -28.0224468 -0.321729E-08  0.310E-04    1.41      78.3  T
     SCC iter.                  ...        0 min,  0.759 sec
     gradient                   ...        0 min,  0.062 sec
 * total energy  :   -27.7112648 Eh     change       -0.1742835E-01 Eh
   gradient norm :     0.1295962 Eh/α   predicted    -0.1106879E-01 ( -36.49%)
   displ. norm   :     0.3587010 α      lambda       -0.3272364E-01
   maximum displ.:     0.1738552 α      in ANC's #26, #9, #25, ...

........................................................................
.............................. CYCLE    6 ..............................
........................................................................

 iter      E             dE          RMSdq      gap      omega  full diag
   1    -28.0120509 -0.280121E+02  0.818E-01    1.52       0.0  T
   2    -28.0117148  0.336033E-03  0.839E-01    1.50       1.0  T
   3    -28.0160638 -0.434897E-02  0.277E-01    1.51       1.0  T
   4    -28.0155125  0.551319E-03  0.196E-01    1.50       1.0  T
   5    -28.0161075 -0.595010E-03  0.528E-02    1.51       1.0  T
   6    -28.0161411 -0.335723E-04  0.218E-02    1.51       1.1  T
   7    -28.0161419 -0.840444E-06  0.136E-02    1.51       1.8  T
   8    -28.0161433 -0.140202E-05  0.383E-03    1.51       6.3  T
   9    -28.0161434 -0.576780E-07  0.190E-03    1.51      12.8  T
  10    -28.0161434 -0.658307E-08  0.758E-04    1.51      32.0  T
  11    -28.0161434 -0.139845E-08  0.391E-04    1.51      62.1  T
     SCC iter.                  ...        0 min,  0.965 sec
     gradient                   ...        0 min,  0.105 sec
 * total energy  :   -27.7301921 Eh     change       -0.1892730E-01 Eh
   gradient norm :     0.1357352 Eh/α   predicted    -0.1846704E-01 (  -2.43%)
   displ. norm   :     0.7299017 α      lambda       -0.2733272E-01
   maximum displ.:     0.6587653 α      in ANC's #1, #9, #26, ...

........................................................................
.............................. CYCLE    7 ..............................
........................................................................

 iter      E             dE          RMSdq      gap      omega  full diag
   1    -28.0031258 -0.280031E+02  0.102E+00    1.39       0.0  T
   2    -27.9996492  0.347654E-02  0.114E+00    1.47       1.0  T
   3    -28.0087825 -0.913327E-02  0.401E-01    1.41       1.0  T
   4    -28.0079410  0.841468E-03  0.273E-01    1.42       1.0  T
   5    -28.0088398 -0.898822E-03  0.981E-02    1.41       1.0  T
   6    -28.0089303 -0.904661E-04  0.357E-02    1.41       1.0  T
   7    -28.0089375 -0.723833E-05  0.207E-02    1.41       1.2  T
   8    -28.0089413 -0.373601E-05  0.500E-03    1.41       4.9  T
   9    -28.0089414 -0.920983E-07  0.247E-03    1.41       9.8  T
  10    -28.0089414 -0.137153E-07  0.635E-04    1.41      38.2  T
  11    -28.0089414 -0.280167E-08  0.238E-04    1.41     101.9  T
     SCC iter.                  ...        0 min,  1.149 sec
     gradient                   ...        0 min,  0.002 sec
 * total energy  :   -27.7097835 Eh     change        0.2040862E-01 Eh
   gradient norm :     0.5251061 Eh/α   predicted    -0.2094730E-01 (-202.64%)
   displ. norm   :     0.4056715 α      lambda       -0.7502151E-01
   maximum displ.:     0.3976273 α      in ANC's #1, #9, #25, ...

........................................................................
.............................. CYCLE    8 ..............................
........................................................................

 iter      E             dE          RMSdq      gap      omega  full diag
   1    -28.0221691 -0.280222E+02  0.715E-01    1.61       0.0  T
   2    -28.0212502  0.918889E-03  0.900E-01    1.57       1.0  T
   3    -28.0265958 -0.534560E-02  0.302E-01    1.58       1.0  T
   4    -28.0262331  0.362748E-03  0.191E-01    1.58       1.0  T
   5    -28.0266495 -0.416398E-03  0.612E-02    1.59       1.0  T
   6    -28.0266719 -0.224421E-04  0.262E-02    1.59       1.0  T
   7    -28.0266745 -0.254101E-05  0.125E-02    1.59       1.9  T
   8    -28.0266760 -0.155580E-05  0.513E-03    1.59       4.7  T
   9    -28.0266762 -0.142832E-06  0.170E-03    1.59      14.2  T
  10    -28.0266762  0.265864E-09  0.794E-04    1.59      30.6  T
  11    -28.0266762 -0.436092E-08  0.255E-04    1.59      95.3  T
     SCC iter.                  ...        0 min,  1.182 sec
     gradient                   ...        0 min,  0.101 sec
 * total energy  :   -27.7448298 Eh     change       -0.3504631E-01 Eh
   gradient norm :     0.0806358 Eh/α   predicted    -0.4368388E-01 (  24.65%)
   displ. norm   :     0.1228585 α      lambda       -0.6819913E-02
   maximum displ.:     0.0804735 α      in ANC's #9, #10, #25, ...

........................................................................
.............................. CYCLE    9 ..............................
........................................................................

 iter      E             dE          RMSdq      gap      omega  full diag
   1    -28.0391869 -0.280392E+02  0.162E-01    1.61       0.0  T
   2    -28.0391893 -0.238290E-05  0.157E-01    1.60       1.0  T
   3    -28.0393896 -0.200329E-03  0.536E-02    1.60       1.0  T
   4    -28.0393858  0.379618E-05  0.242E-02    1.60       1.0  T
   5    -28.0393907 -0.486858E-05  0.775E-03    1.60       3.1  T
   6    -28.0393909 -0.277554E-06  0.472E-03    1.60       5.1  T
   7    -28.0393912 -0.307048E-06  0.138E-03    1.60      17.5  T
   8    -28.0393913 -0.134499E-07  0.525E-04    1.60      46.2  T
   9    -28.0393913 -0.664773E-09  0.200E-04    1.60     121.2  T
     SCC iter.                  ...        0 min,  0.881 sec
     gradient                   ...        0 min,  0.051 sec
 * total energy  :   -27.7508614 Eh     change       -0.6031563E-02 Eh
   gradient norm :     0.0571022 Eh/α   predicted    -0.3461428E-02 ( -42.61%)
   displ. norm   :     0.4091164 α      lambda       -0.1752459E-01
   maximum displ.:     0.2851909 α      in ANC's #9, #10, #25, ...

........................................................................
.............................. CYCLE   10 ..............................
........................................................................

 iter      E             dE          RMSdq      gap      omega  full diag
   1    -28.0737953 -0.280738E+02  0.454E-01    1.66       0.0  T
   2    -28.0738971 -0.101734E-03  0.416E-01    1.62       1.0  T
   3    -28.0751138 -0.121674E-02  0.164E-01    1.64       1.0  T
   4    -28.0750943  0.195114E-04  0.657E-02    1.64       1.0  T
   5    -28.0751302 -0.358771E-04  0.224E-02    1.64       1.1  T
   6    -28.0751333 -0.316899E-05  0.108E-02    1.64       2.3  T
   7    -28.0751344 -0.107799E-05  0.436E-03    1.64       5.6  T
   8    -28.0751346 -0.209299E-06  0.135E-03    1.64      18.0  T
   9    -28.0751346 -0.362926E-08  0.542E-04    1.64      44.7  T
  10    -28.0751346 -0.291781E-09  0.173E-04    1.64     140.5  T
     SCC iter.                  ...        0 min,  0.913 sec
     gradient                   ...        0 min,  0.153 sec
 * total energy  :   -27.7615562 Eh     change       -0.1069482E-01 Eh
   gradient norm :     0.0448424 Eh/α   predicted    -0.1022890E-01 (  -4.36%)
   displ. norm   :     0.1662810 α      lambda       -0.3175027E-02
   maximum displ.:     0.1216418 α      in ANC's #9, #10, #25, ...

........................................................................
.............................. CYCLE   11 ..............................
........................................................................

 iter      E             dE          RMSdq      gap      omega  full diag
   1    -28.0838635 -0.280839E+02  0.137E-01    1.66       0.0  T
   2    -28.0838704 -0.690578E-05  0.859E-02    1.65       1.0  T
   3    -28.0838302  0.402108E-04  0.587E-02    1.66       1.0  T
   4    -28.0838810 -0.508186E-04  0.167E-02    1.66       1.5  T
   5    -28.0838833 -0.230152E-05  0.709E-03    1.66       3.4  T
   6    -28.0838837 -0.401474E-06  0.213E-03    1.66      11.4  T
   7    -28.0838837 -0.218677E-07  0.705E-04    1.66      34.4  T
   8    -28.0838837 -0.796391E-09  0.383E-04    1.66      63.3  T
     SCC iter.                  ...        0 min,  0.645 sec
     gradient                   ...        0 min,  0.107 sec
 * total energy  :   -27.7640247 Eh     change       -0.2468546E-02 Eh
   gradient norm :     0.0435977 Eh/α   predicted    -0.1631411E-02 ( -33.91%)
   displ. norm   :     0.2164569 α      lambda       -0.4432757E-02
   maximum displ.:     0.1421662 α      in ANC's #9, #1, #10, ...

........................................................................
.............................. CYCLE   12 ..............................
........................................................................

 iter      E             dE          RMSdq      gap      omega  full diag
   1    -28.0911656 -0.280912E+02  0.287E-01    1.66       0.0  T
   2    -28.0911715 -0.590141E-05  0.202E-01    1.68       1.0  T
   3    -28.0913708 -0.199317E-03  0.116E-01    1.67       1.0  T
   4    -28.0914143 -0.434790E-04  0.199E-02    1.67       1.2  T
   5    -28.0914152 -0.884585E-06  0.963E-03    1.67       2.5  T
   6    -28.0914156 -0.390475E-06  0.370E-03    1.67       6.6  T
   7    -28.0914157 -0.122096E-06  0.107E-03    1.67      22.6  T
   8    -28.0914157 -0.366665E-08  0.531E-04    1.67      45.7  T
   9    -28.0914157  0.191399E-09  0.251E-04    1.67      96.6  T
     SCC iter.                  ...        0 min,  0.952 sec
     gradient                   ...        0 min,  0.237 sec
 * total energy  :   -27.7669168 Eh     change       -0.2892034E-02 Eh
   gradient norm :     0.0290326 Eh/α   predicted    -0.2320220E-02 ( -19.77%)
   displ. norm   :     0.1026996 α      lambda       -0.1369513E-02
   maximum displ.:     0.0642372 α      in ANC's #1, #9, #10, ...

........................................................................
.............................. CYCLE   13 ..............................
........................................................................

 iter      E             dE          RMSdq      gap      omega  full diag
   1    -28.0894442 -0.280894E+02  0.153E-01    1.67       0.0  T
   2    -28.0894604 -0.162364E-04  0.103E-01    1.68       1.0  T
   3    -28.0895251 -0.646582E-04  0.601E-02    1.67       1.0  T
   4    -28.0895367 -0.116404E-04  0.183E-02    1.67       1.3  T
   5    -28.0895393 -0.261145E-05  0.743E-03    1.67       3.3  T
   6    -28.0895395 -0.115816E-06  0.496E-03    1.67       4.9  T
   7    -28.0895397 -0.287036E-06  0.184E-03    1.67      13.2  T
   8    -28.0895398 -0.272616E-07  0.579E-04    1.67      41.9  T
   9    -28.0895398 -0.191722E-09  0.192E-04    1.67     126.0  T
     SCC iter.                  ...        0 min,  0.639 sec
     gradient                   ...        0 min,  0.161 sec
 * total energy  :   -27.7677949 Eh     change       -0.8781281E-03 Eh
   gradient norm :     0.0193215 Eh/α   predicted    -0.6919775E-03 ( -21.20%)
   displ. norm   :     0.0511143 α      lambda       -0.5053463E-03
   maximum displ.:     0.0346140 α      in ANC's #1, #26, #2, ...

........................................................................
.............................. CYCLE   14 ..............................
........................................................................

 iter      E             dE          RMSdq      gap      omega  full diag
   1    -28.0867382 -0.280867E+02  0.785E-02    1.68       0.0  T
   2    -28.0867440 -0.584193E-05  0.467E-02    1.68       1.0  T
   3    -28.0867492 -0.523445E-05  0.329E-02    1.68       1.0  T
   4    -28.0867546 -0.541446E-05  0.106E-02    1.68       2.3  T
   5    -28.0867555 -0.850979E-06  0.371E-03    1.68       6.5  T
   6    -28.0867555  0.178941E-08  0.217E-03    1.68      11.2  T
   7    -28.0867556 -0.593717E-07  0.937E-04    1.68      25.9  T
   8    -28.0867556 -0.642106E-08  0.408E-04    1.68      59.4  T
     SCC iter.                  ...        0 min,  0.840 sec
     gradient                   ...        0 min,  0.048 sec
 * total energy  :   -27.7681580 Eh     change       -0.3631282E-03 Eh
   gradient norm :     0.0167924 Eh/α   predicted    -0.2533318E-03 ( -30.24%)
   displ. norm   :     0.0563891 α      lambda       -0.4649481E-03
   maximum displ.:     0.0314190 α      in ANC's #1, #2, #5, ...

........................................................................
.............................. CYCLE   15 ..............................
........................................................................

 iter      E             dE          RMSdq      gap      omega  full diag
   1    -28.0831643 -0.280832E+02  0.709E-02    1.68       0.0  T
   2    -28.0831640  0.301385E-06  0.674E-02    1.68       1.0  T
   3    -28.0831886 -0.246171E-04  0.285E-02    1.68       1.0  T
   4    -28.0831869  0.169282E-05  0.130E-02    1.68       1.9  T
   5    -28.0831891 -0.218767E-05  0.565E-03    1.68       4.3  T
   6    -28.0831893 -0.188635E-06  0.313E-03    1.68       7.7  T
   7    -28.0831893 -0.597095E-07  0.856E-04    1.68      28.3  T
   8    -28.0831893 -0.618347E-08  0.358E-04    1.68      67.7  T
     SCC iter.                  ...        0 min,  0.605 sec
     gradient                   ...        0 min,  0.151 sec
 * total energy  :   -27.7684878 Eh     change       -0.3297657E-03 Eh
   gradient norm :     0.0141368 Eh/α   predicted    -0.2332111E-03 ( -29.28%)
   displ. norm   :     0.0607764 α      lambda       -0.3948555E-03
   maximum displ.:     0.0310483 α      in ANC's #2, #1, #5, ...

........................................................................
.............................. CYCLE   16 ..............................
........................................................................

 iter      E             dE          RMSdq      gap      omega  full diag
   1    -28.0810452 -0.280810E+02  0.660E-02    1.68       0.0  T
   2    -28.0810399  0.525690E-05  0.731E-02    1.68       1.0  T
   3    -28.0810745 -0.345685E-04  0.259E-02    1.68       1.0  T
   4    -28.0810729  0.165100E-05  0.109E-02    1.68       2.2  T
   5    -28.0810746 -0.177794E-05  0.424E-03    1.68       5.7  T
   6    -28.0810747 -0.736247E-07  0.166E-03    1.68      14.6  T
   7    -28.0810747 -0.199603E-07  0.550E-04    1.68      44.1  T
   8    -28.0810747 -0.141714E-08  0.306E-04    1.68      79.2  T
     SCC iter.                  ...        0 min,  0.824 sec
     gradient                   ...        0 min,  0.092 sec
 * total energy  :   -27.7687817 Eh     change       -0.2938857E-03 Eh
   gradient norm :     0.0139133 Eh/α   predicted    -0.1981587E-03 ( -32.57%)
   displ. norm   :     0.0892914 α      lambda       -0.4782251E-03
   maximum displ.:     0.0497561 α      in ANC's #2, #5, #4, ...

........................................................................
.............................. CYCLE   17 ..............................
........................................................................

 iter      E             dE          RMSdq      gap      omega  full diag
   1    -28.0797752 -0.280798E+02  0.862E-02    1.69       0.0  T
   2    -28.0797641  0.110964E-04  0.953E-02    1.68       1.0  T
   3    -28.0798290 -0.648522E-04  0.305E-02    1.68       1.0  T
   4    -28.0798263  0.267326E-05  0.135E-02    1.68       1.8  T
   5    -28.0798292 -0.285068E-05  0.380E-03    1.68       6.4  T
   6    -28.0798293 -0.109011E-06  0.153E-03    1.68      15.9  T
   7    -28.0798293 -0.787626E-08  0.393E-04    1.68      61.7  T
   8    -28.0798293 -0.524466E-09  0.261E-04    1.68      93.1  T
     SCC iter.                  ...        0 min,  0.917 sec
     gradient                   ...        0 min,  0.099 sec
 * total energy  :   -27.7691460 Eh     change       -0.3643318E-03 Eh
   gradient norm :     0.0184990 Eh/α   predicted    -0.2410203E-03 ( -33.85%)
   displ. norm   :     0.1433499 α      lambda       -0.6953994E-03
   maximum displ.:     0.0832478 α      in ANC's #2, #5, #4, ...

........................................................................
.............................. CYCLE   18 ..............................
........................................................................

 iter      E             dE          RMSdq      gap      omega  full diag
   1    -28.0796613 -0.280797E+02  0.103E-01    1.69       0.0  T
   2    -28.0796526  0.867231E-05  0.942E-02    1.68       1.0  T
   3    -28.0797090 -0.564162E-04  0.389E-02    1.68       1.0  T
   4    -28.0797080  0.107669E-05  0.135E-02    1.68       1.8  T
   5    -28.0797104 -0.244672E-05  0.541E-03    1.68       4.5  T
   6    -28.0797108 -0.356255E-06  0.175E-03    1.68      13.8  T
   7    -28.0797108 -0.826492E-08  0.902E-04    1.68      26.9  T
   8    -28.0797108 -0.452966E-08  0.282E-04    1.68      86.1  T
     SCC iter.                  ...        0 min,  0.690 sec
     gradient                   ...        0 min,  0.115 sec
 * total energy  :   -27.7696869 Eh     change       -0.5409311E-03 Eh
   gradient norm :     0.0244906 Eh/α   predicted    -0.3548454E-03 ( -34.40%)
   displ. norm   :     0.2382738 α      lambda       -0.1119239E-02
   maximum displ.:     0.1408043 α      in ANC's #2, #5, #4, ...

........................................................................
.............................. CYCLE   19 ..............................
........................................................................

 iter      E             dE          RMSdq      gap      omega  full diag
   1    -28.0804495 -0.280804E+02  0.135E-01    1.69       0.0  T
   2    -28.0804478  0.171246E-05  0.914E-02    1.68       1.0  T
   3    -28.0804522 -0.440552E-05  0.658E-02    1.69       1.0  T
   4    -28.0804759 -0.237515E-04  0.133E-02    1.68       1.8  T
   5    -28.0804777 -0.173876E-05  0.709E-03    1.68       3.4  T
   6    -28.0804783 -0.618023E-06  0.227E-03    1.68      10.7  T
   7    -28.0804783 -0.184885E-07  0.126E-03    1.68      19.3  T
   8    -28.0804783 -0.533397E-08  0.522E-04    1.68      46.4  T
   9    -28.0804783 -0.184077E-08  0.175E-04    1.68     138.8  T
     SCC iter.                  ...        0 min,  1.068 sec
     gradient                   ...        0 min,  0.048 sec
 * total energy  :   -27.7705626 Eh     change       -0.8756329E-03 Eh
   gradient norm :     0.0303456 Eh/α   predicted    -0.5913920E-03 ( -32.46%)
   displ. norm   :     0.3363495 α      lambda       -0.1627023E-02
   maximum displ.:     0.2011849 α      in ANC's #2, #5, #4, ...

........................................................................
.............................. CYCLE   20 ..............................
........................................................................

 iter      E             dE          RMSdq      gap      omega  full diag
   1    -28.0819330 -0.280819E+02  0.172E-01    1.68       0.0  T
   2    -28.0819400 -0.702118E-05  0.105E-01    1.68       1.0  T
   3    -28.0818952  0.448549E-04  0.793E-02    1.68       1.0  T
   4    -28.0819565 -0.613257E-04  0.101E-02    1.68       2.4  T
   5    -28.0819567 -0.227981E-06  0.655E-03    1.68       3.7  T
   6    -28.0819572 -0.475116E-06  0.355E-03    1.68       6.8  T
   7    -28.0819573 -0.659252E-07  0.161E-03    1.68      15.0  T
   8    -28.0819573 -0.662573E-08  0.764E-04    1.68      31.8  T
   9    -28.0819573 -0.391833E-08  0.330E-04    1.68      73.5  T
     SCC iter.                  ...        0 min,  0.808 sec
     gradient                   ...        0 min,  0.187 sec
 * total energy  :   -27.7718363 Eh     change       -0.1273706E-02 Eh
   gradient norm :     0.0362048 Eh/α   predicted    -0.9055441E-03 ( -28.90%)
   displ. norm   :     0.3838866 α      lambda       -0.2005418E-02
   maximum displ.:     0.2313841 α      in ANC's #2, #5, #4, ...
 * RMSD in coord.:     0.6872917 α      energy gain  -0.2351995E+01 Eh

generating ANC from exact Hessian ...
Using Lindh-Hessian (1995)
 Shifting diagonal of input Hessian by    1.2060030215249446E-002
 Lowest  eigenvalues of input Hessian
    0.010000    0.000000    0.000000    0.000000    0.000000    0.000000
    0.000000    0.016240    0.017177    0.019539    0.021893    0.023341
    0.024443    0.037349    0.048193    0.059769    0.061452    0.065154
 Highest eigenvalues
    1.828420    2.036919    2.308724    3.737046    4.026830    6.940070


........................................................................
.............................. CYCLE   21 ..............................
........................................................................

 iter      E             dE          RMSdq      gap      omega  full diag
   1    -28.0835672 -0.280836E+02  0.211E-01    1.68       0.0  T
   2    -28.0835623  0.494219E-05  0.168E-01    1.69       1.0  T
   3    -28.0836937 -0.131481E-03  0.886E-02    1.68       1.0  T
   4    -28.0837106 -0.168098E-04  0.144E-02    1.69       1.7  T
   5    -28.0837114 -0.799091E-06  0.100E-02    1.68       2.4  T
   6    -28.0837121 -0.707942E-06  0.410E-03    1.68       5.9  T
   7    -28.0837122 -0.114037E-06  0.152E-03    1.68      16.0  T
   8    -28.0837122 -0.553722E-08  0.788E-04    1.68      30.8  T
   9    -28.0837122 -0.331836E-08  0.233E-04    1.68     104.2  T
     SCC iter.                  ...        0 min,  0.934 sec
     gradient                   ...        0 min,  0.075 sec
 * total energy  :   -27.7733824 Eh     change       -0.1546162E-02 Eh
   gradient norm :     0.0390474 Eh/α   predicted     0.0000000E+00 (-100.00%)
   displ. norm   :     0.3992461 α      lambda       -0.5467629E-02
   maximum displ.:     0.3070357 α      in ANC's #1, #6, #9, ...

........................................................................
.............................. CYCLE   22 ..............................
........................................................................

 iter      E             dE          RMSdq      gap      omega  full diag
   1    -28.0885210 -0.280885E+02  0.241E-01    1.72       0.0  T
   2    -28.0885263 -0.528865E-05  0.131E-01    1.71       1.0  T
   3    -28.0883822  0.144038E-03  0.114E-01    1.71       1.0  T
   4    -28.0885544 -0.172157E-03  0.205E-02    1.71       1.2  T
   5    -28.0885555 -0.114490E-05  0.910E-03    1.71       2.7  T
   6    -28.0885559 -0.371368E-06  0.562E-03    1.71       4.3  T
   7    -28.0885561 -0.185433E-06  0.168E-03    1.71      14.4  T
   8    -28.0885561 -0.426522E-08  0.863E-04    1.71      28.1  T
   9    -28.0885561 -0.532049E-08  0.297E-04    1.71      81.5  T
     SCC iter.                  ...        0 min,  1.542 sec
     gradient                   ...        0 min,  0.238 sec
 * total energy  :   -27.7766529 Eh     change       -0.3270422E-02 Eh
   gradient norm :     0.0287506 Eh/α   predicted    -0.3169578E-02 (  -3.08%)
   displ. norm   :     0.3944977 α      lambda       -0.2387425E-02
   maximum displ.:     0.3527484 α      in ANC's #1, #2, #6, ...

........................................................................
.............................. CYCLE   23 ..............................
........................................................................

 iter      E             dE          RMSdq      gap      omega  full diag
   1    -28.0891977 -0.280892E+02  0.260E-01    1.73       0.0  T
   2    -28.0891670  0.306504E-04  0.192E-01    1.72       1.0  T
   3    -28.0893420 -0.174988E-03  0.898E-02    1.72       1.0  T
   4    -28.0893777 -0.356661E-04  0.319E-02    1.72       1.0  T
   5    -28.0893884 -0.106786E-04  0.171E-02    1.72       1.4  T
   6    -28.0893901 -0.169227E-05  0.550E-03    1.72       4.4  T
   7    -28.0893903 -0.204064E-06  0.209E-03    1.72      11.6  T
   8    -28.0893903 -0.259896E-07  0.108E-03    1.72      22.4  T
   9    -28.0893903 -0.370312E-08  0.466E-04    1.72      52.1  T
  10    -28.0893903 -0.335909E-09  0.195E-04    1.72     124.1  T
     SCC iter.                  ...        0 min,  1.634 sec
     gradient                   ...        0 min,  0.235 sec
 * total energy  :   -27.7786088 Eh     change       -0.1955984E-02 Eh
   gradient norm :     0.0232184 Eh/α   predicted    -0.1379494E-02 ( -29.47%)
   displ. norm   :     0.5014432 α      lambda       -0.2468496E-02
   maximum displ.:     0.4284655 α      in ANC's #1, #2, #12, ...

........................................................................
.............................. CYCLE   24 ..............................
........................................................................

 iter      E             dE          RMSdq      gap      omega  full diag
   1    -28.0875390 -0.280875E+02  0.273E-01    1.72       0.0  T
   2    -28.0874822  0.567721E-04  0.212E-01    1.71       1.0  T
   3    -28.0877265 -0.244277E-03  0.986E-02    1.72       1.0  T
   4    -28.0877600 -0.334972E-04  0.372E-02    1.72       1.0  T
   5    -28.0877748 -0.147738E-04  0.187E-02    1.72       1.3  T
   6    -28.0877769 -0.217149E-05  0.675E-03    1.72       3.6  T
   7    -28.0877773 -0.306531E-06  0.234E-03    1.72      10.3  T
   8    -28.0877773 -0.294107E-07  0.131E-03    1.72      18.5  T
   9    -28.0877773 -0.435601E-08  0.596E-04    1.72      40.7  T
  10    -28.0877773 -0.109842E-08  0.253E-04    1.72      95.7  T
     SCC iter.                  ...        0 min,  1.231 sec
     gradient                   ...        0 min,  0.253 sec
 * total energy  :   -27.7807325 Eh     change       -0.2123634E-02 Eh
   gradient norm :     0.0311197 Eh/α   predicted    -0.1544627E-02 ( -27.26%)
   displ. norm   :     0.6335566 α      lambda       -0.3081515E-02
   maximum displ.:     0.5326067 α      in ANC's #1, #2, #5, ...

........................................................................
.............................. CYCLE   25 ..............................
........................................................................

 iter      E             dE          RMSdq      gap      omega  full diag
   1    -28.0845852 -0.280846E+02  0.267E-01    1.72       0.0  T
   2    -28.0845706  0.146421E-04  0.172E-01    1.71       1.0  T
   3    -28.0846131 -0.425152E-04  0.122E-01    1.72       1.0  T
   4    -28.0847111 -0.980112E-04  0.334E-02    1.71       1.0  T
   5    -28.0847187 -0.754884E-05  0.178E-02    1.71       1.4  T
   6    -28.0847213 -0.269175E-05  0.788E-03    1.71       3.1  T
   7    -28.0847219 -0.513635E-06  0.253E-03    1.71       9.6  T
   8    -28.0847219 -0.331389E-08  0.135E-03    1.71      18.0  T
   9    -28.0847219 -0.742027E-08  0.574E-04    1.71      42.2  T
  10    -28.0847219 -0.131021E-08  0.262E-04    1.71      92.4  T
     SCC iter.                  ...        0 min,  1.745 sec
     gradient                   ...        0 min,  0.189 sec
 * total energy  :   -27.7832576 Eh     change       -0.2525141E-02 Eh
   gradient norm :     0.0558793 Eh/α   predicted    -0.2159231E-02 ( -14.49%)
   displ. norm   :     0.6162949 α      lambda       -0.4079562E-02
   maximum displ.:     0.4598469 α      in ANC's #1, #2, #5, ...

........................................................................
.............................. CYCLE   26 ..............................
........................................................................

 iter      E             dE          RMSdq      gap      omega  full diag
   1    -28.0842547 -0.280843E+02  0.256E-01    1.75       0.0  T
   2    -28.0842939 -0.392068E-04  0.156E-01    1.75       1.0  T
   3    -28.0842653  0.286448E-04  0.108E-01    1.75       1.0  T
   4    -28.0843443 -0.789963E-04  0.254E-02    1.75       1.0  T
   5    -28.0843494 -0.519204E-05  0.123E-02    1.75       2.0  T
   6    -28.0843503 -0.830881E-06  0.740E-03    1.75       3.3  T
   7    -28.0843508 -0.492512E-06  0.228E-03    1.75      10.6  T
   8    -28.0843508 -0.374930E-07  0.150E-03    1.75      16.2  T
   9    -28.0843508 -0.540616E-08  0.386E-04    1.75      62.8  T
  10    -28.0843508 -0.129701E-08  0.169E-04    1.75     143.5  T
     SCC iter.                  ...        0 min,  1.274 sec
     gradient                   ...        0 min,  0.204 sec
 * total energy  :   -27.7859068 Eh     change       -0.2649169E-02 Eh
   gradient norm :     0.0491409 Eh/α   predicted    -0.2814564E-02 (   6.24%)
   displ. norm   :     0.5962933 α      lambda       -0.5356848E-02
   maximum displ.:     0.5416049 α      in ANC's #1, #5, #27, ...

........................................................................
.............................. CYCLE   27 ..............................
........................................................................

 iter      E             dE          RMSdq      gap      omega  full diag
   1    -28.0969336 -0.280969E+02  0.280E-01    1.73       0.0  T
   2    -28.0970048 -0.711237E-04  0.135E-01    1.72       1.0  T
   3    -28.0970009  0.390209E-05  0.608E-02    1.73       1.0  T
   4    -28.0970098 -0.895035E-05  0.325E-02    1.72       1.0  T
   5    -28.0970144 -0.459094E-05  0.161E-02    1.72       1.5  T
   6    -28.0970155 -0.113270E-05  0.638E-03    1.72       3.8  T
   7    -28.0970158 -0.266312E-06  0.359E-03    1.72       6.8  T
   8    -28.0970159 -0.762032E-07  0.199E-03    1.72      12.2  T
   9    -28.0970159 -0.192105E-07  0.738E-04    1.72      32.9  T
  10    -28.0970159 -0.516727E-08  0.256E-04    1.72      94.8  T
     SCC iter.                  ...        0 min,  2.531 sec
     gradient                   ...        0 min,  0.117 sec
 * total energy  :   -27.7884764 Eh     change       -0.2569636E-02 Eh
   gradient norm :     0.1176144 Eh/α   predicted    -0.3630788E-02 (  41.30%)
   displ. norm   :     0.2666523 α      lambda       -0.4346099E-02
   maximum displ.:     0.1641014 α      in ANC's #1, #2, #5, ...

........................................................................
.............................. CYCLE   28 ..............................
........................................................................

 iter      E             dE          RMSdq      gap      omega  full diag
   1    -28.1053847 -0.281054E+02  0.154E-01    1.76       0.0  T
   2    -28.1054003 -0.155649E-04  0.887E-02    1.76       1.0  T
   3    -28.1053811  0.191333E-04  0.535E-02    1.76       1.0  T
   4    -28.1054095 -0.283276E-04  0.144E-02    1.76       1.7  T
   5    -28.1054095 -0.309285E-07  0.892E-03    1.76       2.7  T
   6    -28.1054100 -0.512810E-06  0.307E-03    1.76       7.9  T
   7    -28.1054100 -0.241821E-07  0.176E-03    1.76      13.8  T
   8    -28.1054101 -0.523242E-07  0.551E-04    1.76      44.0  T
   9    -28.1054101 -0.105801E-08  0.281E-04    1.76      86.3  T
     SCC iter.                  ...        0 min,  0.684 sec
     gradient                   ...        0 min,  0.077 sec
 * total energy  :   -27.7913992 Eh     change       -0.2922748E-02 Eh
   gradient norm :     0.0503176 Eh/α   predicted    -0.2327561E-02 ( -20.36%)
   displ. norm   :     0.7503856 α      lambda       -0.5386584E-02
   maximum displ.:     0.5738699 α      in ANC's #1, #2, #5, ...

........................................................................
.............................. CYCLE   29 ..............................
........................................................................

 iter      E             dE          RMSdq      gap      omega  full diag
   1    -28.0896771 -0.280897E+02  0.394E-01    1.75       0.0  T
   2    -28.0896041  0.730276E-04  0.326E-01    1.73       1.0  T
   3    -28.0902332 -0.629066E-03  0.138E-01    1.74       1.0  T
   4    -28.0902564 -0.232242E-04  0.577E-02    1.74       1.0  T
   5    -28.0902929 -0.365294E-04  0.263E-02    1.74       1.0  T
   6    -28.0902994 -0.644147E-05  0.976E-03    1.74       2.5  T
   7    -28.0902997 -0.333102E-06  0.325E-03    1.74       7.5  T
   8    -28.0902997 -0.547476E-07  0.170E-03    1.74      14.3  T
   9    -28.0902997 -0.735569E-08  0.591E-04    1.74      41.0  T
  10    -28.0902997 -0.169532E-08  0.259E-04    1.74      93.6  T
     SCC iter.                  ...        0 min,  0.619 sec
     gradient                   ...        0 min,  0.057 sec
 * total energy  :   -27.7937782 Eh     change       -0.2379033E-02 Eh
   gradient norm :     0.0595740 Eh/α   predicted    -0.4209816E-02 (  76.95%)
   displ. norm   :     0.3466962 α      lambda       -0.5258882E-02
   maximum displ.:     0.2577317 α      in ANC's #1, #5, #27, ...

........................................................................
.............................. CYCLE   30 ..............................
........................................................................

 iter      E             dE          RMSdq      gap      omega  full diag
   1    -28.1114990 -0.281115E+02  0.224E-01    1.75       0.0  T
   2    -28.1115556 -0.566701E-04  0.164E-01    1.75       1.0  T
   3    -28.1116414 -0.857525E-04  0.912E-02    1.75       1.0  T
   4    -28.1116589 -0.174717E-04  0.370E-02    1.75       1.0  T
   5    -28.1116716 -0.127133E-04  0.148E-02    1.75       1.6  T
   6    -28.1116740 -0.245127E-05  0.589E-03    1.75       4.1  T
   7    -28.1116741 -0.103677E-06  0.303E-03    1.75       8.0  T
   8    -28.1116742 -0.948905E-07  0.118E-03    1.75      20.5  T
   9    -28.1116742 -0.258755E-08  0.294E-04    1.75      82.4  T
  10    -28.1116742 -0.682185E-09  0.133E-04    1.75     182.6  T
     SCC iter.                  ...        0 min,  0.994 sec
     gradient                   ...        0 min,  0.050 sec
 * total energy  :   -27.7966068 Eh     change       -0.2828578E-02 Eh
   gradient norm :     0.0698953 Eh/α   predicted    -0.2945488E-02 (   4.13%)
   displ. norm   :     0.6011717 α      lambda       -0.7593332E-02
   maximum displ.:     0.4645784 α      in ANC's #1, #5, #27, ...

........................................................................
.............................. CYCLE   31 ..............................
........................................................................

 iter      E             dE          RMSdq      gap      omega  full diag
   1    -28.1153359 -0.281153E+02  0.306E-01    1.79       0.0  T
   2    -28.1153517 -0.158026E-04  0.241E-01    1.78       1.0  T
   3    -28.1155963 -0.244536E-03  0.118E-01    1.78       1.0  T
   4    -28.1156613 -0.650024E-04  0.523E-02    1.78       1.0  T
   5    -28.1156870 -0.257339E-04  0.241E-02    1.78       1.0  T
   6    -28.1156911 -0.407983E-05  0.735E-03    1.78       3.3  T
   7    -28.1156912 -0.131652E-06  0.391E-03    1.78       6.2  T
   8    -28.1156913 -0.751441E-07  0.204E-03    1.78      11.9  T
   9    -28.1156913 -0.172250E-07  0.833E-04    1.78      29.1  T
  10    -28.1156913 -0.121747E-08  0.238E-04    1.78     102.0  T
     SCC iter.                  ...        0 min,  0.297 sec
     gradient                   ...        0 min,  0.162 sec
 * total energy  :   -27.7969975 Eh     change       -0.3907294E-03 Eh
   gradient norm :     0.1727214 Eh/α   predicted    -0.5168821E-02 (1222.86%)
   displ. norm   :     0.2555070 α      lambda       -0.8622205E-02
   maximum displ.:     0.1348134 α      in ANC's #1, #5, #2, ...

........................................................................
.............................. CYCLE   32 ..............................
........................................................................

 iter      E             dE          RMSdq      gap      omega  full diag
   1    -28.1087907 -0.281088E+02  0.312E-01    1.78       0.0  T
   2    -28.1087388  0.518899E-04  0.331E-01    1.77       1.0  T
   3    -28.1094677 -0.728893E-03  0.963E-02    1.78       1.0  T
   4    -28.1094287  0.389680E-04  0.573E-02    1.78       1.0  T
   5    -28.1094705 -0.418108E-04  0.211E-02    1.78       1.2  T
   6    -28.1094729 -0.238761E-05  0.634E-03    1.78       3.8  T
   7    -28.1094731 -0.162213E-06  0.241E-03    1.78      10.0  T
   8    -28.1094732 -0.676106E-07  0.924E-04    1.78      26.3  T
   9    -28.1094732 -0.151657E-08  0.490E-04    1.78      49.5  T
     SCC iter.                  ...        0 min,  0.653 sec
     gradient                   ...        0 min,  0.056 sec
 * total energy  :   -27.8017317 Eh     change       -0.4734202E-02 Eh
   gradient norm :     0.0356874 Eh/α   predicted    -0.4592551E-02 (  -2.99%)
   displ. norm   :     0.6318579 α      lambda       -0.3954502E-02
   maximum displ.:     0.4842234 α      in ANC's #1, #2, #5, ...

........................................................................
.............................. CYCLE   33 ..............................
........................................................................

 iter      E             dE          RMSdq      gap      omega  full diag
   1    -28.0998466 -0.280998E+02  0.296E-01    1.75       0.0  T
   2    -28.0998572 -0.105493E-04  0.184E-01    1.74       1.0  T
   3    -28.0999817 -0.124560E-03  0.123E-01    1.75       1.0  T
   4    -28.1000643 -0.825763E-04  0.396E-02    1.74       1.0  T
   5    -28.1000769 -0.125989E-04  0.201E-02    1.74       1.2  T
   6    -28.1000802 -0.335286E-05  0.771E-03    1.74       3.1  T
   7    -28.1000806 -0.313057E-06  0.278E-03    1.74       8.7  T
   8    -28.1000806 -0.227866E-07  0.161E-03    1.74      15.0  T
   9    -28.1000806 -0.869515E-08  0.519E-04    1.74      46.8  T
  10    -28.1000806 -0.114083E-08  0.218E-04    1.74     111.0  T
     SCC iter.                  ...        0 min,  0.906 sec
     gradient                   ...        0 min,  0.050 sec
 * total energy  :   -27.8030011 Eh     change       -0.1269368E-02 Eh
   gradient norm :     0.0977669 Eh/α   predicted    -0.2766672E-02 ( 117.96%)
   displ. norm   :     0.2693205 α      lambda       -0.5925460E-02
   maximum displ.:     0.1194651 α      in ANC's #1, #27, #5, ...

........................................................................
.............................. CYCLE   34 ..............................
........................................................................

 iter      E             dE          RMSdq      gap      omega  full diag
   1    -28.1119482 -0.281119E+02  0.363E-01    1.83       0.0  T
   2    -28.1120501 -0.101865E-03  0.358E-01    1.84       1.0  T
   3    -28.1129525 -0.902448E-03  0.964E-02    1.83       1.0  T
   4    -28.1129049  0.475809E-04  0.561E-02    1.83       1.0  T
   5    -28.1129563 -0.513756E-04  0.164E-02    1.83       1.5  T
   6    -28.1129591 -0.276491E-05  0.512E-03    1.82       4.7  T
   7    -28.1129592 -0.109048E-06  0.250E-03    1.83       9.7  T
   8    -28.1129592 -0.566916E-07  0.117E-03    1.83      20.8  T
   9    -28.1129592 -0.193170E-08  0.456E-04    1.83      53.2  T
  10    -28.1129592 -0.436255E-09  0.220E-04    1.83     110.1  T
     SCC iter.                  ...        0 min,  0.837 sec
     gradient                   ...        0 min,  0.059 sec
 * total energy  :   -27.8057391 Eh     change       -0.2737997E-02 Eh
   gradient norm :     0.0468771 Eh/α   predicted    -0.3177629E-02 (  16.06%)
   displ. norm   :     0.6217372 α      lambda       -0.8959237E-02
   maximum displ.:     0.4282154 α      in ANC's #1, #3, #12, ...

........................................................................
.............................. CYCLE   35 ..............................
........................................................................

 iter      E             dE          RMSdq      gap      omega  full diag
   1    -28.1276656 -0.281277E+02  0.720E-01    1.81       0.0  T
   2    -28.1279194 -0.253815E-03  0.642E-01    1.75       1.0  T
   3    -28.1309188 -0.299942E-02  0.166E-01    1.78       1.0  T
   4    -28.1308157  0.103177E-03  0.112E-01    1.77       1.0  T
   5    -28.1309644 -0.148752E-03  0.454E-02    1.77       1.0  T
   6    -28.1309746 -0.101299E-04  0.131E-02    1.77       1.9  T
   7    -28.1309749 -0.386157E-06  0.728E-03    1.77       3.3  T
   8    -28.1309753 -0.368361E-06  0.350E-03    1.77       6.9  T
   9    -28.1309753 -0.334037E-07  0.124E-03    1.77      19.5  T
  10    -28.1309753 -0.735295E-08  0.293E-04    1.77      82.7  T
  11    -28.1309753 -0.519904E-10  0.119E-04    1.77     203.1  T
     SCC iter.                  ...        0 min,  0.827 sec
     gradient                   ...        0 min,  0.060 sec
 * total energy  :   -27.8056768 Eh     change        0.6227463E-04 Eh
   gradient norm :     0.1006359 Eh/α   predicted    -0.6211203E-02 (*******%)
   displ. norm   :     0.3410792 α      lambda       -0.1037777E-01
   maximum displ.:     0.1934401 α      in ANC's #3, #1, #7, ...

........................................................................
.............................. CYCLE   36 ..............................
........................................................................

 iter      E             dE          RMSdq      gap      omega  full diag
   1    -28.1173382 -0.281173E+02  0.267E-01    1.81       0.0  T
   2    -28.1174620 -0.123776E-03  0.143E-01    1.80       1.0  T
   3    -28.1174447  0.172424E-04  0.674E-02    1.81       1.0  T
   4    -28.1174509 -0.622290E-05  0.428E-02    1.80       1.0  T
   5    -28.1174762 -0.252218E-04  0.110E-02    1.81       2.2  T
   6    -28.1174765 -0.305402E-06  0.540E-03    1.81       4.5  T
   7    -28.1174767 -0.267094E-06  0.166E-03    1.81      14.6  T
   8    -28.1174767 -0.963905E-08  0.793E-04    1.81      30.6  T
   9    -28.1174767 -0.188230E-08  0.385E-04    1.81      63.1  T
     SCC iter.                  ...        0 min,  0.575 sec
     gradient                   ...        0 min,  0.140 sec
 * total energy  :   -27.8103060 Eh     change       -0.4629147E-02 Eh
   gradient norm :     0.0574777 Eh/α   predicted    -0.5792521E-02 (  25.13%)
   displ. norm   :     0.5120765 α      lambda       -0.9039316E-02
   maximum displ.:     0.3034377 α      in ANC's #2, #1, #5, ...

........................................................................
.............................. CYCLE   37 ..............................
........................................................................

 iter      E             dE          RMSdq      gap      omega  full diag
   1    -28.0933986 -0.280934E+02  0.867E-01    1.79       0.0  T
   2    -28.0942214 -0.822877E-03  0.111E+00    1.83       1.0  T
   3    -28.1018192 -0.759778E-02  0.357E-01    1.80       1.0  T
   4    -28.1018961 -0.768385E-04  0.109E-01    1.79       1.0  T
   5    -28.1020125 -0.116496E-03  0.585E-02    1.79       1.0  T
   6    -28.1020678 -0.552384E-04  0.155E-02    1.79       1.6  T
   7    -28.1020684 -0.608794E-06  0.518E-03    1.79       4.7  T
   8    -28.1020687 -0.279173E-06  0.194E-03    1.79      12.5  T
   9    -28.1020687 -0.117248E-07  0.673E-04    1.79      36.1  T
  10    -28.1020687 -0.274954E-08  0.278E-04    1.79      87.1  T
     SCC iter.                  ...        0 min,  0.772 sec
     gradient                   ...        0 min,  0.097 sec
 * total energy  :   -27.8029174 Eh     change        0.7388590E-02 Eh
   gradient norm :     0.2240808 Eh/α   predicted    -0.5704827E-02 (-177.21%)
   displ. norm   :     0.2449686 α      lambda       -0.2096847E-01
   maximum displ.:     0.1572583 α      in ANC's #2, #12, #1, ...

........................................................................
.............................. CYCLE   38 ..............................
........................................................................

 iter      E             dE          RMSdq      gap      omega  full diag
   1    -28.1094196 -0.281094E+02  0.776E-01    1.84       0.0  T
   2    -28.1099069 -0.487342E-03  0.873E-01    1.78       1.0  T
   3    -28.1149357 -0.502876E-02  0.228E-01    1.80       1.0  T
   4    -28.1146233  0.312382E-03  0.168E-01    1.80       1.0  T
   5    -28.1149713 -0.347972E-03  0.530E-02    1.80       1.0  T
   6    -28.1149845 -0.131993E-04  0.181E-02    1.80       1.3  T
   7    -28.1149860 -0.153151E-05  0.904E-03    1.80       2.7  T
   8    -28.1149866 -0.548651E-06  0.208E-03    1.80      11.6  T
   9    -28.1149866 -0.168071E-07  0.705E-04    1.80      34.4  T
  10    -28.1149866 -0.441549E-09  0.252E-04    1.80      96.3  T
     SCC iter.                  ...        0 min,  0.773 sec
     gradient                   ...        0 min,  0.002 sec
 * total energy  :   -27.8136248 Eh     change       -0.1070741E-01 Eh
   gradient norm :     0.0390744 Eh/α   predicted    -0.1111339E-01 (   3.79%)
   displ. norm   :     0.3916545 α      lambda       -0.3053122E-02
   maximum displ.:     0.2387850 α      in ANC's #1, #5, #27, ...

........................................................................
.............................. CYCLE   39 ..............................
........................................................................

 iter      E             dE          RMSdq      gap      omega  full diag
   1    -28.1225643 -0.281226E+02  0.253E-01    1.81       0.0  T
   2    -28.1226092 -0.449048E-04  0.174E-01    1.79       1.0  T
   3    -28.1228076 -0.198360E-03  0.758E-02    1.80       1.0  T
   4    -28.1228205 -0.129271E-04  0.227E-02    1.80       1.1  T
   5    -28.1228202  0.281584E-06  0.147E-02    1.80       1.6  T
   6    -28.1228228 -0.253822E-05  0.542E-03    1.80       4.5  T
   7    -28.1228231 -0.283927E-06  0.196E-03    1.80      12.4  T
   8    -28.1228231 -0.551867E-08  0.106E-03    1.80      22.8  T
   9    -28.1228231 -0.551522E-08  0.321E-04    1.80      75.6  T
  10    -28.1228231 -0.257973E-09  0.149E-04    1.80     162.7  T
     SCC iter.                  ...        0 min,  0.266 sec
     gradient                   ...        0 min,  0.002 sec
 * total energy  :   -27.8154342 Eh     change       -0.1809441E-02 Eh
   gradient norm :     0.0662449 Eh/α   predicted    -0.1760714E-02 (  -2.69%)
   displ. norm   :     0.3514944 α      lambda       -0.3892419E-02
   maximum displ.:     0.1762110 α      in ANC's #1, #27, #5, ...

........................................................................
.............................. CYCLE   40 ..............................
........................................................................

 iter      E             dE          RMSdq      gap      omega  full diag
   1    -28.1405681 -0.281406E+02  0.214E-01    1.83       0.0  T
   2    -28.1406442 -0.760754E-04  0.191E-01    1.84       1.0  T
   3    -28.1407905 -0.146373E-03  0.822E-02    1.83       1.0  T
   4    -28.1407872  0.332504E-05  0.249E-02    1.83       1.0  T
   5    -28.1407892 -0.202849E-05  0.182E-02    1.83       1.3  T
   6    -28.1407932 -0.399795E-05  0.684E-03    1.83       3.5  T
   7    -28.1407935 -0.240669E-06  0.222E-03    1.83      10.9  T
   8    -28.1407935 -0.518327E-07  0.105E-03    1.83      23.1  T
   9    -28.1407935 -0.217192E-08  0.362E-04    1.83      67.0  T
  10    -28.1407935 -0.156870E-09  0.199E-04    1.83     121.7  T
     SCC iter.                  ...        0 min,  0.533 sec
     gradient                   ...        0 min,  0.002 sec
 * total energy  :   -27.8175218 Eh     change       -0.2087599E-02 Eh
   gradient norm :     0.0394403 Eh/α   predicted    -0.2186664E-02 (   4.75%)
   displ. norm   :     0.7501184 α      lambda       -0.6127441E-02
   maximum displ.:     0.4643842 α      in ANC's #1, #27, #5, ...

........................................................................
.............................. CYCLE   41 ..............................
........................................................................

 iter      E             dE          RMSdq      gap      omega  full diag
   1    -28.1265376 -0.281265E+02  0.396E-01    1.84       0.0  T
   2    -28.1266153 -0.776888E-04  0.230E-01    1.82       1.0  T
   3    -28.1268376 -0.222257E-03  0.146E-01    1.83       1.0  T
   4    -28.1269323 -0.946802E-04  0.567E-02    1.83       1.0  T
   5    -28.1269684 -0.361770E-04  0.271E-02    1.82       1.0  T
   6    -28.1269730 -0.455523E-05  0.957E-03    1.82       2.5  T
   7    -28.1269734 -0.384212E-06  0.317E-03    1.82       7.7  T
   8    -28.1269734 -0.257057E-07  0.184E-03    1.82      13.2  T
   9    -28.1269734 -0.107370E-07  0.567E-04    1.82      42.8  T
  10    -28.1269734 -0.507434E-09  0.204E-04    1.82     119.0  T
     SCC iter.                  ...        0 min,  0.677 sec
     gradient                   ...        0 min,  0.145 sec
 * total energy  :   -27.8214864 Eh     change       -0.3964558E-02 Eh
   gradient norm :     0.0588170 Eh/α   predicted    -0.4787589E-02 (  20.76%)
   displ. norm   :     0.5402687 α      lambda       -0.3215465E-02
   maximum displ.:     0.2968958 α      in ANC's #1, #5, #27, ...

........................................................................
.............................. CYCLE   42 ..............................
........................................................................

 iter      E             dE          RMSdq      gap      omega  full diag
   1    -28.1234539 -0.281235E+02  0.219E-01    1.83       0.0  T
   2    -28.1234649 -0.109321E-04  0.115E-01    1.82       1.0  T
   3    -28.1233851  0.797623E-04  0.958E-02    1.83       1.0  T
   4    -28.1235088 -0.123681E-03  0.265E-02    1.83       1.0  T
   5    -28.1235141 -0.532542E-05  0.115E-02    1.82       2.1  T
   6    -28.1235144 -0.299641E-06  0.399E-03    1.82       6.1  T
   7    -28.1235145 -0.116837E-06  0.191E-03    1.82      12.7  T
   8    -28.1235145 -0.328992E-08  0.123E-03    1.82      19.8  T
   9    -28.1235145 -0.558347E-08  0.383E-04    1.82      63.3  T
  10    -28.1235145 -0.329845E-09  0.132E-04    1.82     183.4  T
     SCC iter.                  ...        0 min,  0.687 sec
     gradient                   ...        0 min,  0.056 sec
 * total energy  :   -27.8236889 Eh     change       -0.2202560E-02 Eh
   gradient norm :     0.0617163 Eh/α   predicted    -0.2077030E-02 (  -5.70%)
   displ. norm   :     0.3607944 α      lambda       -0.4026046E-02
   maximum displ.:     0.1660208 α      in ANC's #5, #27, #12, ...
 * RMSD in coord.:     1.3719895 α      energy gain  -0.5185266E-01 Eh

generating ANC from exact Hessian ...
Using Lindh-Hessian (1995)
 Shifting diagonal of input Hessian by    1.7335996513947214E-002
 Lowest  eigenvalues of input Hessian
    0.010000    0.000000    0.000000    0.000000    0.000000    0.000000
    0.000000    0.022196    0.023069    0.023474    0.025634    0.030421
    0.031334    0.041386    0.050559    0.062415    0.069126    0.075779
 Highest eigenvalues
    1.860547    2.039512    2.270803    3.495357    3.852785    6.870537


........................................................................
.............................. CYCLE   43 ..............................
........................................................................

 iter      E             dE          RMSdq      gap      omega  full diag
   1    -28.1294930 -0.281295E+02  0.225E-01    1.90       0.0  T
   2    -28.1295670 -0.739924E-04  0.162E-01    1.90       1.0  T
   3    -28.1296775 -0.110452E-03  0.757E-02    1.90       1.0  T
   4    -28.1296767  0.726711E-06  0.361E-02    1.90       1.0  T
   5    -28.1296962 -0.194770E-04  0.149E-02    1.90       1.6  T
   6    -28.1296975 -0.132155E-05  0.616E-03    1.90       3.9  T
   7    -28.1296977 -0.179656E-06  0.203E-03    1.90      11.9  T
   8    -28.1296978 -0.325218E-07  0.119E-03    1.90      20.4  T
   9    -28.1296978 -0.292192E-08  0.406E-04    1.90      59.7  T
  10    -28.1296978 -0.233719E-09  0.139E-04    1.90     174.0  T
     SCC iter.                  ...        0 min,  0.770 sec
     gradient                   ...        0 min,  0.059 sec
 * total energy  :   -27.8248683 Eh     change       -0.1179341E-02 Eh
   gradient norm :     0.0842351 Eh/α   predicted     0.0000000E+00 (-100.00%)
   displ. norm   :     0.3963793 α      lambda       -0.5182000E-02
   maximum displ.:     0.3878785 α      in ANC's #1, #5, #29, ...

........................................................................
.............................. CYCLE   44 ..............................
........................................................................

 iter      E             dE          RMSdq      gap      omega  full diag
   1    -28.1366549 -0.281367E+02  0.231E-01    1.86       0.0  T
   2    -28.1366853 -0.303432E-04  0.112E-01    1.86       1.0  T
   3    -28.1366631  0.221439E-04  0.583E-02    1.86       1.0  T
   4    -28.1366850 -0.218859E-04  0.336E-02    1.86       1.0  T
   5    -28.1366941 -0.907664E-05  0.931E-03    1.86       2.6  T
   6    -28.1366947 -0.609952E-06  0.537E-03    1.86       4.5  T
   7    -28.1366949 -0.184422E-06  0.211E-03    1.86      11.5  T
   8    -28.1366949 -0.764362E-08  0.127E-03    1.86      19.1  T
   9    -28.1366949 -0.805362E-08  0.358E-04    1.86      67.8  T
  10    -28.1366949 -0.325283E-09  0.163E-04    1.86     148.8  T
     SCC iter.                  ...        0 min,  0.679 sec
     gradient                   ...        0 min,  0.002 sec
 * total energy  :   -27.8276707 Eh     change       -0.2802391E-02 Eh
   gradient norm :     0.0576040 Eh/α   predicted    -0.2998080E-02 (   6.98%)
   displ. norm   :     0.1921185 α      lambda       -0.1421411E-02
   maximum displ.:     0.1624458 α      in ANC's #1, #11, #2, ...

........................................................................
.............................. CYCLE   45 ..............................
........................................................................

 iter      E             dE          RMSdq      gap      omega  full diag
   1    -28.1390575 -0.281391E+02  0.230E-01    1.86       0.0  T
   2    -28.1390865 -0.289360E-04  0.136E-01    1.85       1.0  T
   3    -28.1391673 -0.808543E-04  0.689E-02    1.85       1.0  T
   4    -28.1391869 -0.196060E-04  0.274E-02    1.85       1.0  T
   5    -28.1391972 -0.102953E-04  0.126E-02    1.85       1.9  T
   6    -28.1391977 -0.484266E-06  0.315E-03    1.85       7.7  T
   7    -28.1391978 -0.346486E-07  0.119E-03    1.85      20.3  T
   8    -28.1391978 -0.101848E-07  0.592E-04    1.85      41.0  T
   9    -28.1391978 -0.683514E-09  0.289E-04    1.85      84.0  T
     SCC iter.                  ...        0 min,  0.702 sec
     gradient                   ...        0 min,  0.061 sec
 * total energy  :   -27.8287893 Eh     change       -0.1118675E-02 Eh
   gradient norm :     0.0298682 Eh/α   predicted    -0.7369373E-03 ( -34.12%)
   displ. norm   :     0.4738274 α      lambda       -0.1945863E-02
   maximum displ.:     0.4293785 α      in ANC's #1, #11, #2, ...

........................................................................
.............................. CYCLE   46 ..............................
........................................................................

 iter      E             dE          RMSdq      gap      omega  full diag
   1    -28.1375155 -0.281375E+02  0.427E-01    1.85       0.0  T
   2    -28.1376613 -0.145785E-03  0.280E-01    1.82       1.0  T
   3    -28.1381239 -0.462608E-03  0.111E-01    1.84       1.0  T
   4    -28.1381445 -0.206092E-04  0.529E-02    1.83       1.0  T
   5    -28.1381860 -0.415072E-04  0.220E-02    1.83       1.1  T
   6    -28.1381871 -0.107530E-05  0.624E-03    1.83       3.9  T
   7    -28.1381873 -0.232104E-06  0.294E-03    1.83       8.3  T
   8    -28.1381874 -0.372453E-07  0.122E-03    1.83      19.8  T
   9    -28.1381874 -0.298818E-08  0.474E-04    1.83      51.1  T
  10    -28.1381874 -0.568836E-09  0.168E-04    1.83     144.4  T
     SCC iter.                  ...        0 min,  0.733 sec
     gradient                   ...        0 min,  0.036 sec
 * total energy  :   -27.8300429 Eh     change       -0.1253532E-02 Eh
   gradient norm :     0.0373062 Eh/α   predicted    -0.1191373E-02 (  -4.96%)
   displ. norm   :     0.2672682 α      lambda       -0.1234896E-02
   maximum displ.:     0.1925674 α      in ANC's #1, #2, #5, ...

........................................................................
.............................. CYCLE   47 ..............................
........................................................................

 iter      E             dE          RMSdq      gap      omega  full diag
   1    -28.1378471 -0.281378E+02  0.156E-01    1.85       0.0  T
   2    -28.1378596 -0.124743E-04  0.825E-02    1.84       1.0  T
   3    -28.1378623 -0.266709E-05  0.515E-02    1.85       1.0  T
   4    -28.1378791 -0.168395E-04  0.144E-02    1.84       1.7  T
   5    -28.1378799 -0.847800E-06  0.934E-03    1.84       2.6  T
   6    -28.1378807 -0.738088E-06  0.290E-03    1.84       8.4  T
   7    -28.1378807 -0.643063E-07  0.103E-03    1.84      23.6  T
   8    -28.1378807 -0.803833E-09  0.630E-04    1.84      38.5  T
   9    -28.1378807 -0.119265E-08  0.183E-04    1.84     132.8  T
     SCC iter.                  ...        0 min,  0.730 sec
     gradient                   ...        0 min,  0.061 sec
 * total energy  :   -27.8309171 Eh     change       -0.8742734E-03 Eh
   gradient norm :     0.0417230 Eh/α   predicted    -0.6615480E-03 ( -24.33%)
   displ. norm   :     0.5705966 α      lambda       -0.2165726E-02
   maximum displ.:     0.4736350 α      in ANC's #1, #2, #5, ...

........................................................................
.............................. CYCLE   48 ..............................
........................................................................

 iter      E             dE          RMSdq      gap      omega  full diag
   1    -28.1367207 -0.281367E+02  0.203E-01    1.84       0.0  T
   2    -28.1367537 -0.329343E-04  0.116E-01    1.84       1.0  T
   3    -28.1367397  0.140246E-04  0.583E-02    1.84       1.0  T
   4    -28.1367625 -0.228874E-04  0.258E-02    1.84       1.0  T
   5    -28.1367628 -0.280646E-06  0.109E-02    1.84       2.2  T
   6    -28.1367636 -0.745192E-06  0.642E-03    1.84       3.8  T
   7    -28.1367641 -0.488610E-06  0.229E-03    1.84      10.6  T
   8    -28.1367641 -0.336359E-07  0.112E-03    1.84      21.7  T
   9    -28.1367641 -0.422371E-08  0.347E-04    1.84      69.9  T
  10    -28.1367641 -0.446484E-09  0.993E-05    1.84     244.3  T
     SCC iter.                  ...        0 min,  0.730 sec
     gradient                   ...        0 min,  0.164 sec
 * total energy  :   -27.8324193 Eh     change       -0.1502121E-02 Eh
   gradient norm :     0.0341394 Eh/α   predicted    -0.1435406E-02 (  -4.44%)
   displ. norm   :     0.3673983 α      lambda       -0.1624305E-02
   maximum displ.:     0.1968564 α      in ANC's #1, #2, #5, ...

........................................................................
.............................. CYCLE   49 ..............................
........................................................................

 iter      E             dE          RMSdq      gap      omega  full diag
   1    -28.1401561 -0.281402E+02  0.216E-01    1.86       0.0  T
   2    -28.1402834 -0.127339E-03  0.222E-01    1.87       1.0  T
   3    -28.1405618 -0.278416E-03  0.813E-02    1.87       1.0  T
   4    -28.1405344  0.274703E-04  0.403E-02    1.87       1.0  T
   5    -28.1405653 -0.309653E-04  0.103E-02    1.87       2.4  T
   6    -28.1405661 -0.811475E-06  0.411E-03    1.86       5.9  T
   7    -28.1405662 -0.686675E-07  0.158E-03    1.87      15.3  T
   8    -28.1405662 -0.207190E-07  0.668E-04    1.87      36.3  T
   9    -28.1405662 -0.583078E-09  0.318E-04    1.87      76.2  T
     SCC iter.                  ...        0 min,  0.782 sec
     gradient                   ...        0 min,  0.041 sec
 * total energy  :   -27.8333491 Eh     change       -0.9298382E-03 Eh
   gradient norm :     0.0191941 Eh/α   predicted    -0.9217759E-03 (  -0.87%)
   displ. norm   :     0.5477547 α      lambda       -0.1538915E-02
   maximum displ.:     0.3949266 α      in ANC's #1, #2, #5, ...

........................................................................
.............................. CYCLE   50 ..............................
........................................................................

 iter      E             dE          RMSdq      gap      omega  full diag
   1    -28.1377206 -0.281377E+02  0.385E-01    1.85       0.0  T
   2    -28.1378473 -0.126679E-03  0.231E-01    1.83       1.0  T
   3    -28.1380577 -0.210372E-03  0.110E-01    1.84       1.0  T
   4    -28.1380934 -0.356858E-04  0.427E-02    1.83       1.0  T
   5    -28.1381164 -0.230414E-04  0.199E-02    1.83       1.2  T
   6    -28.1381179 -0.148752E-05  0.556E-03    1.83       4.4  T
   7    -28.1381181 -0.194757E-06  0.245E-03    1.83       9.9  T
   8    -28.1381181 -0.207706E-07  0.113E-03    1.83      21.4  T
   9    -28.1381181 -0.152025E-08  0.463E-04    1.83      52.4  T
  10    -28.1381181 -0.734563E-09  0.158E-04    1.83     153.0  T
     SCC iter.                  ...        0 min,  0.826 sec
     gradient                   ...        0 min,  0.059 sec
 * total energy  :   -27.8343547 Eh     change       -0.1005599E-02 Eh
   gradient norm :     0.0381791 Eh/α   predicted    -0.1000330E-02 (  -0.52%)
   displ. norm   :     0.2646760 α      lambda       -0.1247433E-02
   maximum displ.:     0.1369854 α      in ANC's #5, #11, #1, ...

........................................................................
.............................. CYCLE   51 ..............................
........................................................................

 iter      E             dE          RMSdq      gap      omega  full diag
   1    -28.1441940 -0.281442E+02  0.276E-01    1.85       0.0  T
   2    -28.1442878 -0.938711E-04  0.176E-01    1.83       1.0  T
   3    -28.1444008 -0.112983E-03  0.752E-02    1.84       1.0  T
   4    -28.1444171 -0.162603E-04  0.221E-02    1.84       1.1  T
   5    -28.1444172 -0.125190E-06  0.144E-02    1.84       1.7  T
   6    -28.1444194 -0.224399E-05  0.534E-03    1.84       4.5  T
   7    -28.1444197 -0.225596E-06  0.150E-03    1.84      16.2  T
   8    -28.1444197 -0.128138E-07  0.773E-04    1.84      31.4  T
   9    -28.1444197 -0.107625E-08  0.395E-04    1.84      61.4  T
     SCC iter.                  ...        0 min,  0.765 sec
     gradient                   ...        0 min,  0.055 sec
 * total energy  :   -27.8347108 Eh     change       -0.3560506E-03 Eh
   gradient norm :     0.0367986 Eh/α   predicted    -0.6674091E-03 (  87.45%)
   displ. norm   :     0.3456883 α      lambda       -0.9908392E-03
   maximum displ.:     0.2464198 α      in ANC's #1, #2, #5, ...

........................................................................
.............................. CYCLE   52 ..............................
........................................................................

 iter      E             dE          RMSdq      gap      omega  full diag
   1    -28.1443629 -0.281444E+02  0.127E-01    1.83       0.0  T
   2    -28.1443787 -0.158163E-04  0.851E-02    1.83       1.0  T
   3    -28.1443767  0.200752E-05  0.419E-02    1.83       1.0  T
   4    -28.1443876 -0.109305E-04  0.193E-02    1.83       1.3  T
   5    -28.1443878 -0.205403E-06  0.131E-02    1.83       1.8  T
   6    -28.1443903 -0.251571E-05  0.335E-03    1.83       7.2  T
   7    -28.1443903 -0.211678E-07  0.114E-03    1.83      21.3  T
   8    -28.1443903 -0.567821E-08  0.681E-04    1.83      35.6  T
   9    -28.1443903 -0.158070E-08  0.140E-04    1.83     173.6  T
     SCC iter.                  ...        0 min,  0.254 sec
     gradient                   ...        0 min,  0.002 sec
 * total energy  :   -27.8353114 Eh     change       -0.6006022E-03 Eh
   gradient norm :     0.0232641 Eh/α   predicted    -0.5546261E-03 (  -7.65%)
   displ. norm   :     0.2109997 α      lambda       -0.2978911E-03
   maximum displ.:     0.1175873 α      in ANC's #1, #2, #5, ...

........................................................................
.............................. CYCLE   53 ..............................
........................................................................

 iter      E             dE          RMSdq      gap      omega  full diag
   1    -28.1439959 -0.281440E+02  0.880E-02    1.83       0.0  T
   2    -28.1440032 -0.729409E-05  0.639E-02    1.83       1.0  T
   3    -28.1440135 -0.102748E-04  0.302E-02    1.83       1.0  T
   4    -28.1440145 -0.103772E-05  0.125E-02    1.83       1.9  T
   5    -28.1440163 -0.177867E-05  0.672E-03    1.83       3.6  T
   6    -28.1440167 -0.408081E-06  0.164E-03    1.83      14.8  T
   7    -28.1440167 -0.893306E-08  0.668E-04    1.83      36.3  T
   8    -28.1440167 -0.274344E-08  0.378E-04    1.83      64.2  T
     SCC iter.                  ...        0 min,  0.506 sec
     gradient                   ...        0 min,  0.143 sec
 * total energy  :   -27.8354959 Eh     change       -0.1845528E-03 Eh
   gradient norm :     0.0186448 Eh/α   predicted    -0.1555752E-03 ( -15.70%)
   displ. norm   :     0.2248264 α      lambda       -0.2149902E-03
   maximum displ.:     0.1451221 α      in ANC's #1, #2, #5, ...

........................................................................
.............................. CYCLE   54 ..............................
........................................................................

 iter      E             dE          RMSdq      gap      omega  full diag
   1    -28.1451145 -0.281451E+02  0.126E-01    1.83       0.0  T
   2    -28.1451257 -0.111850E-04  0.632E-02    1.83       1.0  T
   3    -28.1451319 -0.622182E-05  0.391E-02    1.83       1.0  T
   4    -28.1451395 -0.761864E-05  0.863E-03    1.83       2.8  T
   5    -28.1451392  0.246886E-06  0.726E-03    1.83       3.3  T
   6    -28.1451398 -0.592620E-06  0.176E-03    1.83      13.8  T
   7    -28.1451399 -0.224450E-07  0.774E-04    1.83      31.3  T
   8    -28.1451399 -0.111818E-08  0.419E-04    1.83      57.8  T
     SCC iter.                  ...        0 min,  0.509 sec
     gradient                   ...        0 min,  0.041 sec
 * total energy  :   -27.8356489 Eh     change       -0.1530244E-03 Eh
   gradient norm :     0.0181467 Eh/α   predicted    -0.1129283E-03 ( -26.20%)
   displ. norm   :     0.1487615 α      lambda       -0.2265663E-03
   maximum displ.:     0.0931266 α      in ANC's #1, #2, #11, ...

........................................................................
.............................. CYCLE   55 ..............................
........................................................................

 iter      E             dE          RMSdq      gap      omega  full diag
   1    -28.1487148 -0.281487E+02  0.915E-02    1.83       0.0  T
   2    -28.1487186 -0.381706E-05  0.432E-02    1.83       1.0  T
   3    -28.1487132  0.539669E-05  0.255E-02    1.83       1.0  T
   4    -28.1487206 -0.738653E-05  0.831E-03    1.83       2.9  T
   5    -28.1487209 -0.365202E-06  0.566E-03    1.83       4.3  T
   6    -28.1487212 -0.270515E-06  0.155E-03    1.83      15.7  T
   7    -28.1487212 -0.798494E-08  0.501E-04    1.83      48.4  T
   8    -28.1487212 -0.717595E-09  0.336E-04    1.83      72.2  T
     SCC iter.                  ...        0 min,  0.688 sec
     gradient                   ...        0 min,  0.080 sec
 * total energy  :   -27.8357507 Eh     change       -0.1017483E-03 Eh
   gradient norm :     0.0080298 Eh/α   predicted    -0.1157892E-03 (  13.80%)
   displ. norm   :     0.3065877 α      lambda       -0.2179116E-03
   maximum displ.:     0.2161104 α      in ANC's #1, #2, #11, ...

........................................................................
.............................. CYCLE   56 ..............................
........................................................................

 iter      E             dE          RMSdq      gap      omega  full diag
   1    -28.1450518 -0.281451E+02  0.182E-01    1.82       0.0  T
   2    -28.1450941 -0.423167E-04  0.111E-01    1.81       1.0  T
   3    -28.1451460 -0.519443E-04  0.499E-02    1.81       1.0  T
   4    -28.1451511 -0.509974E-05  0.163E-02    1.81       1.5  T
   5    -28.1451526 -0.149136E-05  0.986E-03    1.81       2.5  T
   6    -28.1451535 -0.847791E-06  0.361E-03    1.81       6.7  T
   7    -28.1451536 -0.954434E-07  0.133E-03    1.81      18.2  T
   8    -28.1451536 -0.539557E-08  0.669E-04    1.81      36.2  T
   9    -28.1451536 -0.559844E-09  0.205E-04    1.81     118.1  T
     SCC iter.                  ...        0 min,  0.695 sec
     gradient                   ...        0 min,  0.094 sec
 * total energy  :   -27.8358195 Eh     change       -0.6883415E-04 Eh
   gradient norm :     0.0158940 Eh/α   predicted    -0.1191971E-03 (  73.17%)
   displ. norm   :     0.0771978 α      lambda       -0.2110864E-03
   maximum displ.:     0.0681093 α      in ANC's #5, #2, #1, ...

........................................................................
.............................. CYCLE   57 ..............................
........................................................................

 iter      E             dE          RMSdq      gap      omega  full diag
   1    -28.1461999 -0.281462E+02  0.908E-02    1.82       0.0  T
   2    -28.1462210 -0.210679E-04  0.801E-02    1.82       1.0  T
   3    -28.1462600 -0.389483E-04  0.232E-02    1.82       1.0  T
   4    -28.1462566  0.334828E-05  0.142E-02    1.82       1.7  T
   5    -28.1462602 -0.361431E-05  0.396E-03    1.82       6.1  T
   6    -28.1462603 -0.859067E-07  0.118E-03    1.82      20.6  T
   7    -28.1462603 -0.945321E-08  0.420E-04    1.82      57.8  T
   8    -28.1462603 -0.146897E-08  0.148E-04    1.82     163.5  T
     SCC iter.                  ...        0 min,  0.498 sec
     gradient                   ...        0 min,  0.002 sec
 * total energy  :   -27.8359139 Eh     change       -0.9436069E-04 Eh
   gradient norm :     0.0124375 Eh/α   predicted    -0.1061714E-03 (  12.52%)
   displ. norm   :     0.0740112 α      lambda       -0.1570343E-03
   maximum displ.:     0.0591595 α      in ANC's #5, #4, #8, ...

........................................................................
.............................. CYCLE   58 ..............................
........................................................................

 iter      E             dE          RMSdq      gap      omega  full diag
   1    -28.1472225 -0.281472E+02  0.459E-02    1.82       0.0  T
   2    -28.1472269 -0.434550E-05  0.367E-02    1.82       1.0  T
   3    -28.1472332 -0.627838E-05  0.149E-02    1.82       1.6  T
   4    -28.1472332 -0.237906E-08  0.323E-03    1.82       7.5  T
   5    -28.1472332  0.108998E-07  0.252E-03    1.82       9.6  T
   6    -28.1472332 -0.743112E-07  0.739E-04    1.82      32.8  T
   7    -28.1472332 -0.624889E-08  0.263E-04    1.82      92.3  T
     SCC iter.                  ...        0 min,  0.388 sec
     gradient                   ...        0 min,  0.095 sec
 * total energy  :   -27.8360064 Eh     change       -0.9252630E-04 Eh
   gradient norm :     0.0050029 Eh/α   predicted    -0.7894735E-04 ( -14.68%)
   displ. norm   :     0.1370179 α      lambda       -0.1160255E-03
   maximum displ.:     0.0859468 α      in ANC's #5, #1, #11, ...

........................................................................
.............................. CYCLE   59 ..............................
........................................................................

 iter      E             dE          RMSdq      gap      omega  full diag
   1    -28.1460286 -0.281460E+02  0.626E-02    1.82       0.0  T
   2    -28.1460327 -0.414041E-05  0.392E-02    1.82       1.0  T
   3    -28.1460370 -0.431309E-05  0.200E-02    1.82       1.2  T
   4    -28.1460379 -0.878367E-06  0.872E-03    1.82       2.8  T
   5    -28.1460388 -0.899389E-06  0.431E-03    1.82       5.6  T
   6    -28.1460389 -0.960526E-07  0.155E-03    1.82      15.7  T
   7    -28.1460389 -0.139155E-07  0.507E-04    1.82      47.8  T
   8    -28.1460389 -0.886406E-09  0.278E-04    1.82      87.2  T
     SCC iter.                  ...        0 min,  0.357 sec
     gradient                   ...        0 min,  0.041 sec
 * total energy  :   -27.8360772 Eh     change       -0.7075275E-04 Eh
   gradient norm :     0.0057015 Eh/α   predicted    -0.5910332E-04 ( -16.46%)
   displ. norm   :     0.0864290 α      lambda       -0.2753407E-04
   maximum displ.:     0.0541951 α      in ANC's #1, #5, #11, ...

........................................................................
.............................. CYCLE   60 ..............................
........................................................................

 iter      E             dE          RMSdq      gap      omega  full diag
   1    -28.1457618 -0.281458E+02  0.403E-02    1.81       0.0  T
   2    -28.1457630 -0.120836E-05  0.195E-02    1.81       1.2  T
   3    -28.1457631 -0.103455E-06  0.129E-02    1.81       1.9  T
   4    -28.1457639 -0.750251E-06  0.374E-03    1.81       6.5  T
   5    -28.1457638  0.392182E-07  0.271E-03    1.81       9.0  T
   6    -28.1457639 -0.942497E-07  0.980E-04    1.81      24.8  T
   7    -28.1457640 -0.940639E-08  0.329E-04    1.81      73.7  T
     SCC iter.                  ...        0 min,  0.526 sec
     gradient                   ...        0 min,  0.096 sec
 * total energy  :   -27.8360887 Eh     change       -0.1159306E-04 Eh
   gradient norm :     0.0026088 Eh/α   predicted    -0.1386907E-04 (  19.63%)
   displ. norm   :     0.0372688 α      lambda       -0.1555540E-04
   maximum displ.:     0.0285187 α      in ANC's #5, #1, #2, ...

........................................................................
.............................. CYCLE   61 ..............................
........................................................................

 iter      E             dE          RMSdq      gap      omega  full diag
   1    -28.1460532 -0.281461E+02  0.151E-02    1.81       0.0  T
   2    -28.1460535 -0.265203E-06  0.797E-03    1.81       3.0  T
   3    -28.1460537 -0.247490E-06  0.483E-03    1.81       5.0  T
   4    -28.1460538 -0.597731E-07  0.121E-03    1.81      20.1  T
   5    -28.1460538  0.864294E-09  0.575E-04    1.81      42.2  T
   6    -28.1460538 -0.305145E-08  0.278E-04    1.81      87.3  T
     SCC iter.                  ...        0 min,  0.290 sec
     gradient                   ...        0 min,  0.002 sec
 * total energy  :   -27.8360969 Eh     change       -0.8118338E-05 Eh
   gradient norm :     0.0070927 Eh/α   predicted    -0.7789575E-05 (  -4.05%)
   displ. norm   :     0.0139194 α      lambda       -0.9905376E-05
   maximum displ.:     0.0069771 α      in ANC's #3, #5, #7, ...

........................................................................
.............................. CYCLE   62 ..............................
........................................................................

 iter      E             dE          RMSdq      gap      omega  full diag
   1    -28.1462529 -0.281463E+02  0.921E-03    1.81       0.0  T
   2    -28.1462530 -0.595780E-07  0.525E-03    1.81       4.6  T
   3    -28.1462530  0.130682E-07  0.276E-03    1.81       8.8  T
   4    -28.1462530 -0.521592E-07  0.815E-04    1.81      29.8  T
   5    -28.1462530  0.215856E-08  0.568E-04    1.81      42.7  T
     SCC iter.                  ...        0 min,  0.101 sec
     gradient                   ...        0 min,  0.002 sec
 * total energy  :   -27.8361052 Eh     change       -0.8320973E-05 Eh
   gradient norm :     0.0060427 Eh/α   predicted    -0.4954806E-05 ( -40.45%)
   displ. norm   :     0.0641616 α      lambda       -0.3360873E-04
   maximum displ.:     0.0273261 α      in ANC's #5, #7, #3, ...

........................................................................
.............................. CYCLE   63 ..............................
........................................................................

 iter      E             dE          RMSdq      gap      omega  full diag
   1    -28.1463812 -0.281464E+02  0.489E-02    1.81       0.0  T
   2    -28.1463827 -0.148635E-05  0.221E-02    1.81       1.1  T
   3    -28.1463828 -0.105455E-06  0.152E-02    1.81       1.6  T
   4    -28.1463839 -0.116438E-05  0.356E-03    1.81       6.8  T
   5    -28.1463839  0.220290E-07  0.286E-03    1.81       8.5  T
   6    -28.1463840 -0.105361E-06  0.700E-04    1.81      34.7  T
   7    -28.1463840 -0.453761E-08  0.336E-04    1.81      72.1  T
     SCC iter.                  ...        0 min,  0.110 sec
     gradient                   ...        0 min,  0.002 sec
 * total energy  :   -27.8361248 Eh     change       -0.1963431E-04 Eh
   gradient norm :     0.0032170 Eh/α   predicted    -0.1687193E-04 ( -14.07%)
   displ. norm   :     0.0275057 α      lambda       -0.6277448E-05
   maximum displ.:     0.0198538 α      in ANC's #5, #7, #11, ...

........................................................................
.............................. CYCLE   64 ..............................
........................................................................

 iter      E             dE          RMSdq      gap      omega  full diag
   1    -28.1464541 -0.281465E+02  0.201E-02    1.80       0.0  T
   2    -28.1464547 -0.591779E-06  0.113E-02    1.80       2.2  T
   3    -28.1464553 -0.599037E-06  0.560E-03    1.80       4.3  T
   4    -28.1464554 -0.608978E-07  0.172E-03    1.80      14.1  T
   5    -28.1464554 -0.220684E-07  0.115E-03    1.80      21.1  T
   6    -28.1464554 -0.128388E-07  0.387E-04    1.80      62.6  T
   7    -28.1464554 -0.132313E-08  0.114E-04    1.80     213.5  T
     SCC iter.                  ...        0 min,  0.657 sec
     gradient                   ...        0 min,  0.060 sec
 * total energy  :   -27.8361290 Eh     change       -0.4188554E-05 Eh
   gradient norm :     0.0014099 Eh/α   predicted    -0.3140804E-05 ( -25.01%)
   displ. norm   :     0.0322495 α      lambda       -0.3814583E-05
   maximum displ.:     0.0260167 α      in ANC's #5, #7, #1, ...

........................................................................
.............................. CYCLE   65 ..............................
........................................................................

 iter      E             dE          RMSdq      gap      omega  full diag
   1    -28.1462140 -0.281462E+02  0.149E-02    1.80       0.0  T
   2    -28.1462143 -0.364602E-06  0.857E-03    1.80       2.8  T
   3    -28.1462145 -0.164420E-06  0.529E-03    1.80       4.6  T
   4    -28.1462146 -0.560886E-07  0.117E-03    1.80      20.7  T
   5    -28.1462146 -0.553528E-08  0.492E-04    1.80      49.3  T
   6    -28.1462146 -0.492431E-09  0.238E-04    1.80     101.8  T
     SCC iter.                  ...        0 min,  0.194 sec
     gradient                   ...        0 min,  0.002 sec
 * total energy  :   -27.8361318 Eh     change       -0.2793266E-05 Eh
   gradient norm :     0.0014069 Eh/α   predicted    -0.1909107E-05 ( -31.65%)
   displ. norm   :     0.0185635 α      lambda       -0.1581707E-05
   maximum displ.:     0.0120439 α      in ANC's #1, #11, #2, ...

........................................................................
.............................. CYCLE   66 ..............................
........................................................................

 iter      E             dE          RMSdq      gap      omega  full diag
   1    -28.1463499 -0.281463E+02  0.120E-02    1.80       0.0  T
   2    -28.1463499 -0.669315E-07  0.538E-03    1.80       4.5  T
   3    -28.1463499  0.304802E-07  0.306E-03    1.80       7.9  T
   4    -28.1463500 -0.561031E-07  0.945E-04    1.80      25.7  T
   5    -28.1463500  0.150386E-08  0.659E-04    1.80      36.8  T
     SCC iter.                  ...        0 min,  0.365 sec
     gradient                   ...        0 min,  0.043 sec
 * total energy  :   -27.8361334 Eh     change       -0.1635114E-05 Eh
   gradient norm :     0.0009989 Eh/α   predicted    -0.7911842E-06 ( -51.61%)
   displ. norm   :     0.0190463 α      lambda       -0.2094346E-05
   maximum displ.:     0.0112171 α      in ANC's #5, #1, #11, ...

   *** GEOMETRY OPTIMIZATION CONVERGED AFTER 66 ITERATIONS ***

------------------------------------------------------------------------
 total energy gain   :        -2.4162918 Eh    -1516.2460 kcal/mol
 total RMSD          :         2.3575272 a0        1.2475 Å
 total power (kW/mol):       -96.1208078 (step) -109.5558 (real)
------------------------------------------------------------------------

 ANCopt (total)                0 d,  0 h,  0 min, 57.906 sec
 optimizer setup                ...        0 min,  0.000 sec (  0.000%)
 model hessian                  ...        0 min,  0.007 sec (  0.013%)
 ANC generation                 ...        0 min,  0.001 sec (  0.002%)
 coordinate transformation      ...        0 min,  0.001 sec (  0.001%)
 single point calculation       ...        0 min, 57.525 sec ( 99.342%)
 optimization log               ...        0 min,  0.006 sec (  0.010%)
 hessian update                 ...        0 min,  0.343 sec (  0.593%)
 rational function              ...        0 min,  0.012 sec (  0.020%)

================
 final structure:
================
17
 xtb: 6.7.1 (edcfbbe)
O           -0.07915686461415        1.12736487862831       -2.50588065969695
S           -0.01396313410982       -0.19221589000321       -1.90099237107571
N           -1.01888779984912        0.00996135335016       -0.07488745413670
C           -1.89455289833132       -1.08094199869273        0.21277261560216
N           -1.32390135160857        1.23647459975213        0.21081287586955
C           -0.26688148560313        2.01914769806881        0.30527170319448
C            0.97595691114433        1.38310513052253        0.29137570452112
C            0.92402686716154        0.05150213240422       -0.04570459702639
C            1.74394985277836       -1.12060714376000        0.30954855887197
H           -2.26104159220257       -1.00278061605460        1.23875157994676
H           -1.34544800685500       -2.01398472255868        0.09405625882527
H           -2.74735660701838       -1.08076733863868       -0.47103675357735
H           -0.42563632151991        3.06255629797788        0.50368827980049
H            1.86344023228120        1.87635531664173        0.64337732488179
H            2.59795987411863       -1.20281973426067       -0.36450271251347
H            2.10895620628827       -1.03558448654759        1.33316723866116
H            1.16253211793610       -2.03676447682835        0.22018440784661

 Bond Distances (Angstroems)
 ---------------------------
O1-S2=1.4531         S2-O1=1.4531         S2-N3=2.0941         S2-C8=2.0932         N3-S2=2.0941         N3-C4=1.4281         
N3-N5=1.2958         C4-N3=1.4281         C4-H10=1.0923        C4-H11=1.0891        C4-H12=1.0931        N5-N3=1.2958         
N5-C6=1.3186         C6-N5=1.3186         C6-C7=1.3962         C6-H13=1.0739        C7-C6=1.3962         C7-C8=1.3746         
C7-H14=1.0746        C8-S2=2.0932         C8-C7=1.3746         C8-C9=1.4739         C9-C8=1.4739         C9-H15=1.0911        
C9-H16=1.0901        C9-H17=1.0888        H10-C4=1.0923        H11-C4=1.0891        H12-C4=1.0931        H13-C6=1.0739        
H14-C7=1.0746        H15-C9=1.0911        H16-C9=1.0901        H17-C9=1.0888        
 C  H  Rav=1.0866 sigma=0.0073  Rmin=1.0739  Rmax=1.0931     8
 C  C  Rav=1.4149 sigma=0.0426  Rmin=1.3746  Rmax=1.4739     3
 N  C  Rav=1.3734 sigma=0.0548  Rmin=1.3186  Rmax=1.4281     2
 N  N  Rav=1.2958 sigma=0.0000  Rmin=1.2958  Rmax=1.2958     1
 S  C  Rav=2.0932 sigma=0.0000  Rmin=2.0932  Rmax=2.0932     1
 S  N  Rav=2.0941 sigma=0.0000  Rmin=2.0941  Rmax=2.0941     1
 S  O  Rav=1.4531 sigma=0.0000  Rmin=1.4531  Rmax=1.4531     1

 selected bond angles (degree)
 --------------------
N3-S2-O1=104.70                C8-S2-O1=106.46                C8-S2-N3= 55.31                C4-N3-S2=113.34                
N5-N3-S2=113.37                N5-N3-C4=122.30                H10-C4-N3=109.89               H11-C4-N3=108.86               
H11-C4-H10=109.44              H12-C4-N3=110.62               H12-C4-H10=109.02              H12-C4-H11=108.98              
C6-N5-N3=112.89                C7-C6-N5=116.26                H13-C6-N5=118.13               H13-C6-C7=125.17               
C8-C7-C6=114.21                H14-C7-C6=121.52               H14-C7-C8=123.79               C7-C8-S2=110.31                
C9-C8-S2=111.74                C9-C8-C7=133.65                H15-C9-C8=110.27               H16-C9-C8=110.52               
H16-C9-H15=108.90              H17-C9-C8=110.63               H17-C9-H15=107.69              H17-C9-H16=108.76              

 selected dihedral angles (degree)
 ---------------------------------
C4-N3-S2-O1=136.99            C4-N3-S2-C8=237.05            N5-N3-S2-O1=351.88            N5-N3-S2-C8= 91.94            
H10-C4-N3-S2=170.77           H10-C4-N3-N5=312.37           H11-C4-N3-S2= 50.92           H11-C4-N3-N5=192.52           
H12-C4-N3-S2=291.19           H12-C4-N3-N5= 72.79           C6-N5-N3-S2=299.71            C6-N5-N3-C4=158.12            
C7-C6-N5-N3=350.57            H13-C6-N5-N3=177.78           C8-C7-C6-N5= 10.47            C8-C7-C6-H13=182.68           
H14-C7-C6-N5=198.11           H14-C7-C6-H13= 10.33          C7-C8-S2-O1= 13.57            C7-C8-S2-N3=276.83            
C9-C8-S2-O1=213.53            C9-C8-S2-N3=116.79            S2-C8-C7-C6= 55.91            S2-C8-C7-H14=228.07           
C9-C8-C7-C6=209.92            C9-C8-C7-H14= 22.07           H15-C9-C8-S2= 67.47           H15-C9-C8-C7=273.74           
H16-C9-C8-S2=187.93           H16-C9-C8-C7= 34.20           H17-C9-C8-S2=308.44           H17-C9-C8-C7=154.71           
           -------------------------------------------------
          |                Final Singlepoint                |
           -------------------------------------------------

          ...................................................
          :                      SETUP                      :
          :.................................................:
          :  # basis functions                  50          :
          :  # atomic orbitals                  49          :
          :  # shells                           27          :
          :  # electrons                        50          :
          :  max. iterations                   250          :
          :  Hamiltonian                  GFN2-xTB          :
          :  restarted?                      false          :
          :  GBSA solvation                  false          :
          :  PC potential                    false          :
          :  electronic temp.          300.0000000     K    :
          :  accuracy                    1.0000000          :
          :  -> integral cutoff          0.2500000E+02      :
          :  -> integral neglect         0.1000000E-07      :
          :  -> SCF convergence          0.1000000E-05 Eh   :
          :  -> wf. convergence          0.1000000E-03 e    :
          :  Broyden damping             0.4000000          :
          :  net charge                          0          :
          :  unpaired electrons                  0          :
          ...................................................

 iter      E             dE          RMSdq      gap      omega  full diag
   1    -28.1463500 -0.281463E+02  0.252E-04    1.80       0.0  T
   2    -28.1463500  0.244000E-09  0.235E-04    1.80     103.4  T
   3    -28.1463500 -0.894090E-09  0.977E-05    1.80     248.3  T

   *** convergence criteria satisfied after 3 iterations ***

         #    Occupation            Energy/Eh            Energy/eV
      -------------------------------------------------------------
         1        2.0000           -0.7426607             -20.2088
       ...           ...                  ...                  ...
        19        2.0000           -0.4735105             -12.8849
        20        2.0000           -0.4608116             -12.5393
        21        2.0000           -0.4569038             -12.4330
        22        2.0000           -0.4180116             -11.3747
        23        2.0000           -0.4022854             -10.9467
        24        2.0000           -0.3761859             -10.2365
        25        2.0000           -0.3419686              -9.3054 (HOMO)
        26                         -0.2757221              -7.5028 (LUMO)
        27                         -0.2328287              -6.3356
        28                         -0.2268103              -6.1718
        29                         -0.1564935              -4.2584
        30                         -0.1332705              -3.6265
       ...                                ...                  ...
        49                          0.9089519              24.7338
      -------------------------------------------------------------
                  HL-Gap            0.0662465 Eh            1.8027 eV
             Fermi-level           -0.3088453 Eh           -8.4041 eV

 SCC (total)                   0 d,  0 h,  0 min,  0.286 sec
 SCC setup                      ...        0 min,  0.000 sec (  0.034%)
 Dispersion                     ...        0 min,  0.000 sec (  0.017%)
 classical contributions        ...        0 min,  0.000 sec (  0.004%)
 integral evaluation            ...        0 min,  0.001 sec (  0.224%)
 iterations                     ...        0 min,  0.209 sec ( 72.929%)
 molecular gradient             ...        0 min,  0.076 sec ( 26.733%)
 printout                       ...        0 min,  0.000 sec (  0.052%)

         :::::::::::::::::::::::::::::::::::::::::::::::::::::
         ::                     SUMMARY                     ::
         :::::::::::::::::::::::::::::::::::::::::::::::::::::
         :: total energy             -27.836133441842 Eh    ::
         :: gradient norm              0.001002560123 Eh/a0 ::
         :: HOMO-LUMO gap              1.802659359362 eV    ::
         ::.................................................::
         :: SCC energy               -28.146270894584 Eh    ::
         :: -> isotropic ES            0.038599181821 Eh    ::
         :: -> anisotropic ES         -0.001650744946 Eh    ::
         :: -> anisotropic XC          0.014699103984 Eh    ::
         :: -> dispersion             -0.015769693597 Eh    ::
         :: repulsion energy           0.309700321406 Eh    ::
         :: add. restraining           0.000437131335 Eh    ::
         :: total charge               0.000000000000 e     ::
         :::::::::::::::::::::::::::::::::::::::::::::::::::::

           -------------------------------------------------
          |                Property Printout                |
           -------------------------------------------------

    * Orbital Energies and Occupations

         #    Occupation            Energy/Eh            Energy/eV
      -------------------------------------------------------------
         1        2.0000           -0.7426607             -20.2088
       ...           ...                  ...                  ...
        13        2.0000           -0.5103053             -13.8861
        14        2.0000           -0.5058893             -13.7659
        15        2.0000           -0.5002187             -13.6116
        16        2.0000           -0.4924478             -13.4002
        17        2.0000           -0.4902481             -13.3403
        18        2.0000           -0.4869095             -13.2495
        19        2.0000           -0.4735105             -12.8849
        20        2.0000           -0.4608116             -12.5393
        21        2.0000           -0.4569038             -12.4330
        22        2.0000           -0.4180116             -11.3747
        23        2.0000           -0.4022854             -10.9467
        24        2.0000           -0.3761859             -10.2365
        25        2.0000           -0.3419686              -9.3054 (HOMO)
        26                         -0.2757221              -7.5028 (LUMO)
        27                         -0.2328287              -6.3356
        28                         -0.2268103              -6.1718
        29                         -0.1564935              -4.2584
        30                         -0.1332705              -3.6265
        31                          0.0032311               0.0879
        32                          0.0512418               1.3944
        33                          0.0603700               1.6428
        34                          0.0945476               2.5728
        35                          0.1103166               3.0019
        36                          0.1155882               3.1453
       ...                                ...                  ...
        49                          0.9089519              24.7338
      -------------------------------------------------------------
                  HL-Gap            0.0662465 Eh            1.8027 eV
             Fermi-level           -0.3088453 Eh           -8.4041 eV

     #   Z          covCN         q      C6AA      α(0)
     1   8 O        0.860    -0.412    21.929     6.279
     2  16 S        2.509     0.281   130.132    19.200
     3   7 N        3.211     0.004    21.177     6.835
     4   6 C        3.692    -0.053    21.716     6.668
     5   7 N        1.926    -0.174    25.560     7.496
     6   6 C        2.952     0.045    26.999     8.522
     7   6 C        2.923    -0.071    29.781     8.949
     8   6 C        3.325     0.002    25.725     8.061
     9   6 C        3.755    -0.108    22.618     6.781
    10   1 H        0.924     0.074     2.043     2.235
    11   1 H        0.925     0.065     2.147     2.291
    12   1 H        0.924     0.071     2.071     2.251
    13   1 H        0.926     0.045     2.377     2.411
    14   1 H        0.926     0.050     2.322     2.383
    15   1 H        0.924     0.065     2.146     2.291
    16   1 H        0.925     0.060     2.200     2.320
    17   1 H        0.925     0.058     2.228     2.334

 Mol. C6AA /au·bohr⁶  :       3914.585400
 Mol. C8AA /au·bohr⁸  :     103526.459471
 Mol. α(0) /au        :         97.307265


Wiberg/Mayer (AO) data.
largest (>0.10) Wiberg bond orders for each atom

 ---------------------------------------------------------------------------
     #   Z sym  total        # sym  WBO       # sym  WBO       # sym  WBO
 ---------------------------------------------------------------------------
     1   8 O    2.149 --     2 S    1.863     3 N    0.105
     2  16 S    3.483 --     1 O    1.863     8 C    0.662     3 N    0.568
                             5 N    0.152
     3   7 N    3.624 --     5 N    1.293     4 C    1.015     2 S    0.568
                             8 C    0.479     1 O    0.105
     4   6 C    3.970 --     3 N    1.015    11 H    0.975    10 H    0.966
                            12 H    0.965
     5   7 N    3.158 --     6 C    1.431     3 N    1.293     8 C    0.163
                             2 S    0.152
     6   6 C    3.976 --     5 N    1.431     7 C    1.372    13 H    0.965
     7   6 C    3.974 --     8 C    1.433     6 C    1.372    14 H    0.941
     8   6 C    3.944 --     7 C    1.433     9 C    1.052     2 S    0.662
                             3 N    0.479     5 N    0.163
     9   6 C    3.995 --     8 C    1.052    17 H    0.969    16 H    0.968
                            15 H    0.959
    10   1 H    0.995 --     4 C    0.966
    11   1 H    0.996 --     4 C    0.975
    12   1 H    0.993 --     4 C    0.965
    13   1 H    0.998 --     6 C    0.965
    14   1 H    0.997 --     7 C    0.941
    15   1 H    0.995 --     9 C    0.959
    16   1 H    0.996 --     9 C    0.968
    17   1 H    0.996 --     9 C    0.969
 ---------------------------------------------------------------------------

Topologies differ in total number of bonds
Writing topology from bond orders to xtbtopo.mol

molecular dipole:
                 x           y           z       tot (Debye)
 q only:        0.136      -1.643       1.132
   full:        0.365      -1.506       1.084       4.807
molecular quadrupole (traceless):
                xx          xy          yy          xz          yz          zz
 q only:        5.450       2.699       2.106      -0.199       6.712      -7.556
  q+dip:        5.452       3.596       2.199       0.640       6.614      -7.650
   full:        4.896       3.782       1.706       0.304       6.272      -6.602

           -------------------------------------------------
          |                Geometry Summary                 |
           -------------------------------------------------

      molecular mass/u    :      144.1948042
   center of mass at/Å    :       -0.1093109       0.2837212      -0.5758175
  moments of inertia/u·Å² :        0.3278539E+03   0.3344915E+03   0.3506955E+03
rotational constants/cm⁻¹ :        0.5141813E-01   0.5039779E-01   0.4806915E-01

 * 15 selected distances

     #   Z          #   Z                                           value/Å
     1   8 O        2  16 S                                       1.4530774
     3   7 N        4   6 C                                       1.4281485
     3   7 N        5   7 N                                       1.2957596
     5   7 N        6   6 C                                       1.3186322
     6   6 C        7   6 C                                       1.3962059
     7   6 C        8   6 C                                       1.3745860
     8   6 C        9   6 C                                       1.4738789 (max)
     4   6 C       10   1 H                                       1.0922711
     4   6 C       11   1 H                                       1.0891183
     4   6 C       12   1 H                                       1.0931009
     6   6 C       13   1 H                                       1.0739059 (min)
     7   6 C       14   1 H                                       1.0746291
     9   6 C       15   1 H                                       1.0910717
     9   6 C       16   1 H                                       1.0900706
     9   6 C       17   1 H                                       1.0887502

 * 5 distinct bonds (by element types)

   Z      Z             #   av. dist./Å        max./Å        min./Å
   1 H    6 C           8     1.0866147     1.0931009     1.0739059
   6 C    6 C           3     1.4148903     1.4738789     1.3745860
   6 C    7 N           2     1.3733904     1.4281485     1.3186322
   7 N    7 N           1     1.2957596     1.2957596     1.2957596
   8 O   16 S           1     1.4530774     1.4530774     1.4530774


optimized geometry written to: xtbopt.xyz


           -------------------------------------------------
          | TOTAL ENERGY              -27.836133441842 Eh   |
          | GRADIENT NORM               0.001002560123 Eh/α |
          | HOMO-LUMO GAP               1.802659359362 eV   |
           -------------------------------------------------

------------------------------------------------------------------------
 * finished run on 2026/08/20 at 02:54:05.904     
------------------------------------------------------------------------
 total:
 * wall-time:     0 d,  0 h,  0 min, 59.334 sec
 *  cpu-time:     0 d,  0 h,  6 min, 22.498 sec
 * ratio c/w:     6.447 speedup
 SCF:
 * wall-time:     0 d,  0 h,  0 min,  1.005 sec
 *  cpu-time:     0 d,  0 h,  0 min,  8.203 sec
 * ratio c/w:     8.163 speedup
 ANC optimizer:
 * wall-time:     0 d,  0 h,  0 min, 58.199 sec
 *  cpu-time:     0 d,  0 h,  6 min, 13.790 sec
 * ratio c/w:     6.423 speedup

