15

N      0.616601   -1.297928   -0.756100
N      1.152251   -0.275441   -0.106564
C      2.582952   -0.010266   -0.049315
C      0.184415    0.521122    0.383396
C     -1.029176   -0.045497    0.060614
C     -2.385063    0.524385    0.312973
C     -0.723143   -1.180412   -0.665800
H      2.847219    0.448097    0.927377
H      2.865090    0.683335   -0.868716
H      3.149967   -0.958446   -0.162499
H      0.349385    1.450654    0.913601
H     -3.131510   -0.293319    0.396080
H     -2.667428    1.193359   -0.526301
H     -2.383100    1.105346    1.259147
H     -1.428458   -1.864988   -1.117892
