16

N     -0.937591    2.050979    0.361414
N      0.255467    1.578414    0.688547
C      0.247240    0.255642    0.436750
S      1.645754   -0.809857    0.682546
O      2.038532   -0.559960    2.132114
N      2.919766   -0.045587   -0.241909
C     -0.987493   -0.116763   -0.055983
C     -1.411879   -1.463733   -0.542926
C     -1.713830    1.053922   -0.102253
H     -1.214182    3.053894    0.445708
H      2.660678   -0.141708   -1.249244
H      3.781401   -0.618499   -0.099436
H     -0.974012   -1.649482   -1.545616
H     -2.518803   -1.515308   -0.613167
H     -1.062233   -2.247638    0.160932
H     -2.728816    1.175684   -0.457477
