16

N     -1.034618    2.316128   -0.154151
N      0.110476    1.924708   -0.690619
C      0.248740    0.597283   -0.535099
S      1.642525   -0.325282   -1.152582
O      1.056548   -1.648506   -1.626236
N      2.575980   -0.743409    0.270060
C     -0.854512    0.116208    0.145491
C     -1.212337   -1.301681    0.457365
C     -1.646216    1.228986    0.357504
H      0.784768    2.564103   -1.166309
H      2.940919    0.151493    0.666214
H      1.921888   -1.142165    0.978906
H     -2.006991   -1.333661    1.232191
H     -0.327945   -1.849478    0.839465
H     -1.584467   -1.800134   -0.461631
H     -2.614759    1.245407    0.839430
