15

C      2.570648   -0.270843    0.005954
N      1.177732    0.153744   -0.004469
N      0.788897    1.416600    0.087165
C     -0.558957    1.427092    0.098937
C     -1.021225    0.126401    0.036559
C     -2.441695   -0.323292   -0.047402
C      0.106995   -0.660937   -0.035258
H      3.225946    0.564255   -0.320637
H      2.712876   -1.127129   -0.687095
H      2.857338   -0.578359    1.033251
H     -1.162865    2.323429    0.147652
H     -2.547240   -1.335139    0.397364
H     -3.097039    0.381568    0.506176
H     -2.756785   -0.356784   -1.110973
H      0.145372   -1.740606   -0.107225
