17
mode=-389.2603 cm^-1 phase=0.000000
C  -2.63727800 -0.12856800  0.44429100
C  -1.28109100  0.24919900 -0.03162700
C  -0.63645200 -0.21697800 -1.17002900
C   0.74054300 -0.19648800 -1.10857900
N   1.22036800 -0.10179600  0.14202900
C   2.55116500 -0.49554000  0.52530000
N   0.38988100  0.27123500  1.11081400
S  -0.50426700  1.69240600  0.71697900
O   0.20387700  2.42771100 -0.32729400
H  -2.83370900 -1.19112200  0.31324900
H  -2.74279900  0.12063800  1.49790900
H  -3.38385300  0.43782300 -0.11597600
H  -1.16906300 -0.67151500 -1.98636700
H   1.41776200 -0.42791400 -1.90994900
H   2.51990500 -0.83775200  1.55958300
H   3.22911600  0.35994700  0.46382700
H   2.91589600 -1.29128700 -0.12415700
17
mode=-389.2603 cm^-1 phase=0.195090
C  -2.61386716 -0.13676179  0.45950805
C  -1.24012203  0.22695870  0.00817143
C  -0.62591712 -0.21229583 -1.17939334
C   0.73937246 -0.20702288 -1.12028442
N   1.21685637 -0.10413708  0.13617629
C   2.54531229 -0.49085783  0.53349379
N   0.32667174  0.23377766  1.08272099
S  -0.50894917  1.72869280  0.71580846
O   0.21207079  2.43356371 -0.33197617
H  -2.83019737 -1.19229254  0.31676063
H  -2.74396954  0.11946746  1.50142063
H  -3.36980650  0.43782300 -0.11831708
H  -1.17491571 -0.64810416 -1.99456079
H   1.41893254 -0.42674346 -1.91346063
H   2.51756392 -0.83658146  1.56192408
H   3.22794546  0.36111754  0.46616808
H   2.91589600 -1.29011646 -0.12064537
17
mode=-389.2603 cm^-1 phase=0.382683
C  -2.59135599 -0.14464070  0.47414031
C  -1.20072748  0.20557309  0.04644042
C  -0.61578709 -0.20779360 -1.18839780
C   0.73824690 -0.21715291 -1.13154001
N   1.21347970 -0.10638820  0.13054850
C   2.53968450 -0.48635560  0.54137270
N   0.26589157  0.19775978  1.05570759
S  -0.51345140  1.76358512  0.71468290
O   0.21994970  2.43919150 -0.33647840
H  -2.82682070 -1.19341810  0.32013730
H  -2.74509510  0.11834190  1.50479730
H  -3.35629979  0.43782300 -0.12056820
H  -1.18054350 -0.62559299 -2.00243970
H   1.42005810 -0.42561790 -1.91683730
H   2.51531280 -0.83545590  1.56417520
H   3.22681990  0.36224310  0.46841920
H   2.91589600 -1.28899090 -0.11726870
17
mode=-389.2603 cm^-1 phase=0.555570
C  -2.57060957 -0.15190195  0.48762548
C  -1.16442125  0.18586399  0.08170933
C  -0.60645121 -0.20364431 -1.19669637
C   0.73720958 -0.22648879 -1.14191321
N   1.21036774 -0.10846284  0.12536189
C   2.53449789 -0.48220631  0.54863395
N   0.20987624  0.16456552  1.03081189
S  -0.51760069  1.79574206  0.71364558
O   0.22721095  2.44437811 -0.34062769
H  -2.82370874 -1.19445542  0.32324926
H  -2.74613242  0.11730458  1.50790926
H  -3.34385194  0.43782300 -0.12264284
H  -1.18573011 -0.60484657 -2.00970095
H   1.42109542 -0.42458058 -1.91994926
H   2.51323816 -0.83441858  1.56624984
H   3.22578258  0.36328042  0.47049384
H   2.91589600 -1.28795358 -0.11415674
17
mode=-389.2603 cm^-1 phase=0.707107
C  -2.55242519 -0.15826648  0.49944533
C  -1.13259858  0.16858883  0.11262278
C  -0.59826823 -0.20000744 -1.20397013
C   0.73630036 -0.23467177 -1.15100541
N   1.20764008 -0.11028128  0.12081580
C   2.52995180 -0.47856944  0.55499848
N   0.16077840  0.13547050  1.00899062
S  -0.52123756  1.82392786  0.71273636
O   0.23357548  2.44892420 -0.34426456
H  -2.82098108 -1.19536464  0.32597692
H  -2.74704164  0.11639536  1.51063692
H  -3.33294131  0.43782300 -0.12446128
H  -1.19027620 -0.58666219 -2.01606548
H   1.42200464 -0.42367136 -1.92267692
H   2.51141972 -0.83350936  1.56806828
H   3.22487336  0.36418964  0.47231228
H   2.91589600 -1.28704436 -0.11142908
17
mode=-389.2603 cm^-1 phase=0.831470
C  -2.53750165 -0.16348972  0.50914563
C  -1.10648238  0.15441146  0.13799280
C  -0.59155264 -0.19702273 -1.20993954
C   0.73555418 -0.24138736 -1.15846718
N   1.20540155 -0.11177364  0.11708491
C   2.52622091 -0.47558473  0.56022172
N   0.12048485  0.11159283  0.99108238
S  -0.52422227  1.84705935  0.71199018
O   0.23879872  2.45265509 -0.34724927
H  -2.81874255 -1.19611082  0.32821545
H  -2.74778782  0.11564918  1.51287545
H  -3.32398719  0.43782300 -0.12595364
H  -1.19400709 -0.57173865 -2.02128872
H   1.42275082 -0.42292518 -1.92491545
H   2.50992736 -0.83276318  1.56956064
H   3.22412718  0.36493582  0.47380464
H   2.91589600 -1.28629818 -0.10919055
17
mode=-389.2603 cm^-1 phase=0.923880
C  -2.52641246 -0.16737094  0.51635360
C  -1.08707630  0.14387673  0.15684442
C  -0.58656251 -0.19480489 -1.21437522
C   0.73499972 -0.24637749 -1.16401177
N   1.20373817 -0.11288255  0.11431261
C   2.52344861 -0.47336689  0.56410294
N   0.09054403  0.09385013  0.97777535
S  -0.52644011  1.86424759  0.71143572
O   0.24267994  2.45542739 -0.34946711
H  -2.81707917 -1.19666528  0.32987883
H  -2.74834228  0.11509472  1.51453883
H  -3.31733367  0.43782300 -0.12706255
H  -1.19677939 -0.56064946 -2.02516994
H   1.42330528 -0.42237072 -1.92657883
H   2.50881845 -0.83220872  1.57066955
H   3.22357272  0.36549028  0.47491355
H   2.91589600 -1.28574372 -0.10752717
17
mode=-389.2603 cm^-1 phase=0.980785
C  -2.51958377 -0.16976098  0.52079225
C  -1.07512609  0.13738948  0.16845320
C  -0.58348959 -0.19343915 -1.21710669
C   0.73465829 -0.24945041 -1.16742612
N   1.20271386 -0.11356542  0.11260544
C   2.52174144 -0.47200115  0.56649298
N   0.07210657  0.08292423  0.96958092
S  -0.52780585  1.87483206  0.71109429
O   0.24506998  2.45713456 -0.35083285
H  -2.81605486 -1.19700671  0.33090314
H  -2.74868371  0.11475329  1.51556314
H  -3.31323646  0.43782300 -0.12774542
H  -1.19848656 -0.55382077 -2.02755998
H   1.42364671 -0.42202929 -1.92760314
H   2.50813558 -0.83186729  1.57135242
H   3.22323129  0.36583171  0.47559642
H   2.91589600 -1.28540229 -0.10650286
17
mode=-389.2603 cm^-1 phase=1.000000
C  -2.51727800 -0.17056800  0.52229100
C  -1.07109100  0.13519900  0.17237300
C  -0.58245200 -0.19297800 -1.21802900
C   0.73454300 -0.25048800 -1.16857900
N   1.20236800 -0.11379600  0.11202900
C   2.52116500 -0.47154000  0.56730000
N   0.06588100  0.07923500  0.96681400
S  -0.52826700  1.87840600  0.71097900
O   0.24587700  2.45771100 -0.35129400
H  -2.81570900 -1.19712200  0.33124900
H  -2.74879900  0.11463800  1.51590900
H  -3.31185300  0.43782300 -0.12797600
H  -1.19906300 -0.55151500 -2.02836700
H   1.42376200 -0.42191400 -1.92794900
H   2.50790500 -0.83175200  1.57158300
H   3.22311600  0.36594700  0.47582700
H   2.91589600 -1.28528700 -0.10615700
17
mode=-389.2603 cm^-1 phase=0.980785
C  -2.51958377 -0.16976098  0.52079225
C  -1.07512609  0.13738948  0.16845320
C  -0.58348959 -0.19343915 -1.21710669
C   0.73465829 -0.24945041 -1.16742612
N   1.20271386 -0.11356542  0.11260544
C   2.52174144 -0.47200115  0.56649298
N   0.07210657  0.08292423  0.96958092
S  -0.52780585  1.87483206  0.71109429
O   0.24506998  2.45713456 -0.35083285
H  -2.81605486 -1.19700671  0.33090314
H  -2.74868371  0.11475329  1.51556314
H  -3.31323646  0.43782300 -0.12774542
H  -1.19848656 -0.55382077 -2.02755998
H   1.42364671 -0.42202929 -1.92760314
H   2.50813558 -0.83186729  1.57135242
H   3.22323129  0.36583171  0.47559642
H   2.91589600 -1.28540229 -0.10650286
17
mode=-389.2603 cm^-1 phase=0.923880
C  -2.52641246 -0.16737094  0.51635360
C  -1.08707630  0.14387673  0.15684442
C  -0.58656251 -0.19480489 -1.21437522
C   0.73499972 -0.24637749 -1.16401177
N   1.20373817 -0.11288255  0.11431261
C   2.52344861 -0.47336689  0.56410294
N   0.09054403  0.09385013  0.97777535
S  -0.52644011  1.86424759  0.71143572
O   0.24267994  2.45542739 -0.34946711
H  -2.81707917 -1.19666528  0.32987883
H  -2.74834228  0.11509472  1.51453883
H  -3.31733367  0.43782300 -0.12706255
H  -1.19677939 -0.56064946 -2.02516994
H   1.42330528 -0.42237072 -1.92657883
H   2.50881845 -0.83220872  1.57066955
H   3.22357272  0.36549028  0.47491355
H   2.91589600 -1.28574372 -0.10752717
17
mode=-389.2603 cm^-1 phase=0.831470
C  -2.53750165 -0.16348972  0.50914563
C  -1.10648238  0.15441146  0.13799280
C  -0.59155264 -0.19702273 -1.20993954
C   0.73555418 -0.24138736 -1.15846718
N   1.20540155 -0.11177364  0.11708491
C   2.52622091 -0.47558473  0.56022172
N   0.12048485  0.11159283  0.99108238
S  -0.52422227  1.84705935  0.71199018
O   0.23879872  2.45265509 -0.34724927
H  -2.81874255 -1.19611082  0.32821545
H  -2.74778782  0.11564918  1.51287545
H  -3.32398719  0.43782300 -0.12595364
H  -1.19400709 -0.57173865 -2.02128872
H   1.42275082 -0.42292518 -1.92491545
H   2.50992736 -0.83276318  1.56956064
H   3.22412718  0.36493582  0.47380464
H   2.91589600 -1.28629818 -0.10919055
17
mode=-389.2603 cm^-1 phase=0.707107
C  -2.55242519 -0.15826648  0.49944533
C  -1.13259858  0.16858883  0.11262278
C  -0.59826823 -0.20000744 -1.20397013
C   0.73630036 -0.23467177 -1.15100541
N   1.20764008 -0.11028128  0.12081580
C   2.52995180 -0.47856944  0.55499848
N   0.16077840  0.13547050  1.00899062
S  -0.52123756  1.82392786  0.71273636
O   0.23357548  2.44892420 -0.34426456
H  -2.82098108 -1.19536464  0.32597692
H  -2.74704164  0.11639536  1.51063692
H  -3.33294131  0.43782300 -0.12446128
H  -1.19027620 -0.58666219 -2.01606548
H   1.42200464 -0.42367136 -1.92267692
H   2.51141972 -0.83350936  1.56806828
H   3.22487336  0.36418964  0.47231228
H   2.91589600 -1.28704436 -0.11142908
17
mode=-389.2603 cm^-1 phase=0.555570
C  -2.57060957 -0.15190195  0.48762548
C  -1.16442125  0.18586399  0.08170933
C  -0.60645121 -0.20364431 -1.19669637
C   0.73720958 -0.22648879 -1.14191321
N   1.21036774 -0.10846284  0.12536189
C   2.53449789 -0.48220631  0.54863395
N   0.20987624  0.16456552  1.03081189
S  -0.51760069  1.79574206  0.71364558
O   0.22721095  2.44437811 -0.34062769
H  -2.82370874 -1.19445542  0.32324926
H  -2.74613242  0.11730458  1.50790926
H  -3.34385194  0.43782300 -0.12264284
H  -1.18573011 -0.60484657 -2.00970095
H   1.42109542 -0.42458058 -1.91994926
H   2.51323816 -0.83441858  1.56624984
H   3.22578258  0.36328042  0.47049384
H   2.91589600 -1.28795358 -0.11415674
17
mode=-389.2603 cm^-1 phase=0.382683
C  -2.59135599 -0.14464070  0.47414031
C  -1.20072748  0.20557309  0.04644042
C  -0.61578709 -0.20779360 -1.18839780
C   0.73824690 -0.21715291 -1.13154001
N   1.21347970 -0.10638820  0.13054850
C   2.53968450 -0.48635560  0.54137270
N   0.26589157  0.19775978  1.05570759
S  -0.51345140  1.76358512  0.71468290
O   0.21994970  2.43919150 -0.33647840
H  -2.82682070 -1.19341810  0.32013730
H  -2.74509510  0.11834190  1.50479730
H  -3.35629979  0.43782300 -0.12056820
H  -1.18054350 -0.62559299 -2.00243970
H   1.42005810 -0.42561790 -1.91683730
H   2.51531280 -0.83545590  1.56417520
H   3.22681990  0.36224310  0.46841920
H   2.91589600 -1.28899090 -0.11726870
17
mode=-389.2603 cm^-1 phase=0.195090
C  -2.61386716 -0.13676179  0.45950805
C  -1.24012203  0.22695870  0.00817143
C  -0.62591712 -0.21229583 -1.17939334
C   0.73937246 -0.20702288 -1.12028442
N   1.21685637 -0.10413708  0.13617629
C   2.54531229 -0.49085783  0.53349379
N   0.32667174  0.23377766  1.08272099
S  -0.50894917  1.72869280  0.71580846
O   0.21207079  2.43356371 -0.33197617
H  -2.83019737 -1.19229254  0.31676063
H  -2.74396954  0.11946746  1.50142063
H  -3.36980650  0.43782300 -0.11831708
H  -1.17491571 -0.64810416 -1.99456079
H   1.41893254 -0.42674346 -1.91346063
H   2.51756392 -0.83658146  1.56192408
H   3.22794546  0.36111754  0.46616808
H   2.91589600 -1.29011646 -0.12064537
17
mode=-389.2603 cm^-1 phase=0.000000
C  -2.63727800 -0.12856800  0.44429100
C  -1.28109100  0.24919900 -0.03162700
C  -0.63645200 -0.21697800 -1.17002900
C   0.74054300 -0.19648800 -1.10857900
N   1.22036800 -0.10179600  0.14202900
C   2.55116500 -0.49554000  0.52530000
N   0.38988100  0.27123500  1.11081400
S  -0.50426700  1.69240600  0.71697900
O   0.20387700  2.42771100 -0.32729400
H  -2.83370900 -1.19112200  0.31324900
H  -2.74279900  0.12063800  1.49790900
H  -3.38385300  0.43782300 -0.11597600
H  -1.16906300 -0.67151500 -1.98636700
H   1.41776200 -0.42791400 -1.90994900
H   2.51990500 -0.83775200  1.55958300
H   3.22911600  0.35994700  0.46382700
H   2.91589600 -1.29128700 -0.12415700
17
mode=-389.2603 cm^-1 phase=-0.195090
C  -2.66068884 -0.12037421  0.42907395
C  -1.32205997  0.27143930 -0.07142543
C  -0.64698688 -0.22166017 -1.16066466
C   0.74171354 -0.18595312 -1.09687358
N   1.22387963 -0.09945492  0.14788171
C   2.55701771 -0.50022217  0.51710621
N   0.45309026  0.30869234  1.13890701
S  -0.49958483  1.65611920  0.71814954
O   0.19568321  2.42185829 -0.32261183
H  -2.83722063 -1.18995146  0.30973737
H  -2.74162846  0.12180854  1.49439737
H  -3.39789950  0.43782300 -0.11363492
H  -1.16321029 -0.69492584 -1.97817321
H   1.41659146 -0.42908454 -1.90643737
H   2.52224608 -0.83892254  1.55724192
H   3.23028654  0.35877646  0.46148592
H   2.91589600 -1.29245754 -0.12766863
17
mode=-389.2603 cm^-1 phase=-0.382683
C  -2.68320001 -0.11249530  0.41444169
C  -1.36145452  0.29282491 -0.10969442
C  -0.65711691 -0.22616240 -1.15166020
C   0.74283910 -0.17582309 -1.08561799
N   1.22725630 -0.09720380  0.15350950
C   2.56264550 -0.50472440  0.50922730
N   0.51387043  0.34471022  1.16592041
S  -0.49508260  1.62122688  0.71927510
O   0.18780430  2.41623050 -0.31810960
H  -2.84059730 -1.18882590  0.30636070
H  -2.74050290  0.12293410  1.49102070
H  -3.41140621  0.43782300 -0.11138380
H  -1.15758250 -0.71743701 -1.97029430
H   1.41546590 -0.43021010 -1.90306070
H   2.52449720 -0.84004810  1.55499080
H   3.23141210  0.35765090  0.45923480
H   2.91589600 -1.29358310 -0.13104530
17
mode=-389.2603 cm^-1 phase=-0.555570
C  -2.70394643 -0.10523405  0.40095652
C  -1.39776075  0.31253401 -0.14496333
C  -0.66645279 -0.23031169 -1.14336163
C   0.74387642 -0.16648721 -1.07524479
N   1.23036826 -0.09512916  0.15869611
C   2.56783211 -0.50887369  0.50196605
N   0.56988576  0.37790448  1.19081611
S  -0.49093331  1.58906994  0.72031242
O   0.18054305  2.41104389 -0.31396031
H  -2.84370926 -1.18778858  0.30324874
H  -2.73946558  0.12397142  1.48790874
H  -3.42385406  0.43782300 -0.10930916
H  -1.15239589 -0.73818343 -1.96303305
H   1.41442858 -0.43124742 -1.89994874
H   2.52657184 -0.84108542  1.55291616
H   3.23244942  0.35661358  0.45716016
H   2.91589600 -1.29462042 -0.13415726
17
mode=-389.2603 cm^-1 phase=-0.707107
C  -2.72213081 -0.09886952  0.38913667
C  -1.42958342  0.32980917 -0.17587678
C  -0.67463577 -0.23394856 -1.13608787
C   0.74478564 -0.15830423 -1.06615259
N   1.23309592 -0.09331072  0.16324220
C   2.57237820 -0.51251056  0.49560152
N   0.61898360  0.40699950  1.21263738
S  -0.48729644  1.56088414  0.72122164
O   0.17417852  2.40649780 -0.31032344
H  -2.84643692 -1.18687936  0.30052108
H  -2.73855636  0.12488064  1.48518108
H  -3.43476469  0.43782300 -0.10749072
H  -1.14784980 -0.75636781 -1.95666852
H   1.41351936 -0.43215664 -1.89722108
H   2.52839028 -0.84199464  1.55109772
H   3.23335864  0.35570436  0.45534172
H   2.91589600 -1.29552964 -0.13688492
17
mode=-389.2603 cm^-1 phase=-0.831470
C  -2.73705435 -0.09364628  0.37943637
C  -1.45569962  0.34398654 -0.20124680
C  -0.68135136 -0.23693327 -1.13011846
C   0.74553182 -0.15158864 -1.05869082
N   1.23533445 -0.09181836  0.16697309
C   2.57610909 -0.51549527  0.49037828
N   0.65927715  0.43087717  1.23054562
S  -0.48431173  1.53775265  0.72196782
O   0.16895528  2.40276691 -0.30733873
H  -2.84867545 -1.18613318  0.29828255
H  -2.73781018  0.12562682  1.48294255
H  -3.44371881  0.43782300 -0.10599836
H  -1.14411891 -0.77129135 -1.95144528
H   1.41277318 -0.43290282 -1.89498255
H   2.52988264 -0.84274082  1.54960536
H   3.23410482  0.35495818  0.45384936
H   2.91589600 -1.29627582 -0.13912345
17
mode=-389.2603 cm^-1 phase=-0.923880
C  -2.74814354 -0.08976506  0.37222840
C  -1.47510570  0.35452127 -0.22009842
C  -0.68634149 -0.23915111 -1.12568278
C   0.74608628 -0.14659851 -1.05314623
N   1.23699783 -0.09070945  0.16974539
C   2.57888139 -0.51771311  0.48649706
N   0.68921797  0.44861987  1.24385265
S  -0.48209389  1.52056441  0.72252228
O   0.16507406  2.39999461 -0.30512089
H  -2.85033883 -1.18557872  0.29661917
H  -2.73725572  0.12618128  1.48127917
H  -3.45037233  0.43782300 -0.10488945
H  -1.14134661 -0.78238054 -1.94756406
H   1.41221872 -0.43345728 -1.89331917
H   2.53099155 -0.84329528  1.54849645
H   3.23465928  0.35440372  0.45274045
H   2.91589600 -1.29683028 -0.14078683
17
mode=-389.2603 cm^-1 phase=-0.980785
C  -2.75497223 -0.08737502  0.36778975
C  -1.48705591  0.36100852 -0.23170720
C  -0.68941441 -0.24051685 -1.12295131
C   0.74642771 -0.14352559 -1.04973188
N   1.23802214 -0.09002658  0.17145256
C   2.58058856 -0.51907885  0.48410702
N   0.70765543  0.45954577  1.25204708
S  -0.48072815  1.50997994  0.72286371
O   0.16268402  2.39828744 -0.30375515
H  -2.85136314 -1.18523729  0.29559486
H  -2.73691429  0.12652271  1.48025486
H  -3.45446954  0.43782300 -0.10420658
H  -1.13963944 -0.78920923 -1.94517402
H   1.41187729 -0.43379871 -1.89229486
H   2.53167442 -0.84363671  1.54781358
H   3.23500071  0.35406229  0.45205758
H   2.91589600 -1.29717171 -0.14181114
17
mode=-389.2603 cm^-1 phase=-1.000000
C  -2.75727800 -0.08656800  0.36629100
C  -1.49109100  0.36319900 -0.23562700
C  -0.69045200 -0.24097800 -1.12202900
C   0.74654300 -0.14248800 -1.04857900
N   1.23836800 -0.08979600  0.17202900
C   2.58116500 -0.51954000  0.48330000
N   0.71388100  0.46323500  1.25481400
S  -0.48026700  1.50640600  0.72297900
O   0.16187700  2.39771100 -0.30329400
H  -2.85170900 -1.18512200  0.29524900
H  -2.73679900  0.12663800  1.47990900
H  -3.45585300  0.43782300 -0.10397600
H  -1.13906300 -0.79151500 -1.94436700
H   1.41176200 -0.43391400 -1.89194900
H   2.53190500 -0.84375200  1.54758300
H   3.23511600  0.35394700  0.45182700
H   2.91589600 -1.29728700 -0.14215700
17
mode=-389.2603 cm^-1 phase=-0.980785
C  -2.75497223 -0.08737502  0.36778975
C  -1.48705591  0.36100852 -0.23170720
C  -0.68941441 -0.24051685 -1.12295131
C   0.74642771 -0.14352559 -1.04973188
N   1.23802214 -0.09002658  0.17145256
C   2.58058856 -0.51907885  0.48410702
N   0.70765543  0.45954577  1.25204708
S  -0.48072815  1.50997994  0.72286371
O   0.16268402  2.39828744 -0.30375515
H  -2.85136314 -1.18523729  0.29559486
H  -2.73691429  0.12652271  1.48025486
H  -3.45446954  0.43782300 -0.10420658
H  -1.13963944 -0.78920923 -1.94517402
H   1.41187729 -0.43379871 -1.89229486
H   2.53167442 -0.84363671  1.54781358
H   3.23500071  0.35406229  0.45205758
H   2.91589600 -1.29717171 -0.14181114
17
mode=-389.2603 cm^-1 phase=-0.923880
C  -2.74814354 -0.08976506  0.37222840
C  -1.47510570  0.35452127 -0.22009842
C  -0.68634149 -0.23915111 -1.12568278
C   0.74608628 -0.14659851 -1.05314623
N   1.23699783 -0.09070945  0.16974539
C   2.57888139 -0.51771311  0.48649706
N   0.68921797  0.44861987  1.24385265
S  -0.48209389  1.52056441  0.72252228
O   0.16507406  2.39999461 -0.30512089
H  -2.85033883 -1.18557872  0.29661917
H  -2.73725572  0.12618128  1.48127917
H  -3.45037233  0.43782300 -0.10488945
H  -1.14134661 -0.78238054 -1.94756406
H   1.41221872 -0.43345728 -1.89331917
H   2.53099155 -0.84329528  1.54849645
H   3.23465928  0.35440372  0.45274045
H   2.91589600 -1.29683028 -0.14078683
17
mode=-389.2603 cm^-1 phase=-0.831470
C  -2.73705435 -0.09364628  0.37943637
C  -1.45569962  0.34398654 -0.20124680
C  -0.68135136 -0.23693327 -1.13011846
C   0.74553182 -0.15158864 -1.05869082
N   1.23533445 -0.09181836  0.16697309
C   2.57610909 -0.51549527  0.49037828
N   0.65927715  0.43087717  1.23054562
S  -0.48431173  1.53775265  0.72196782
O   0.16895528  2.40276691 -0.30733873
H  -2.84867545 -1.18613318  0.29828255
H  -2.73781018  0.12562682  1.48294255
H  -3.44371881  0.43782300 -0.10599836
H  -1.14411891 -0.77129135 -1.95144528
H   1.41277318 -0.43290282 -1.89498255
H   2.52988264 -0.84274082  1.54960536
H   3.23410482  0.35495818  0.45384936
H   2.91589600 -1.29627582 -0.13912345
17
mode=-389.2603 cm^-1 phase=-0.707107
C  -2.72213081 -0.09886952  0.38913667
C  -1.42958342  0.32980917 -0.17587678
C  -0.67463577 -0.23394856 -1.13608787
C   0.74478564 -0.15830423 -1.06615259
N   1.23309592 -0.09331072  0.16324220
C   2.57237820 -0.51251056  0.49560152
N   0.61898360  0.40699950  1.21263738
S  -0.48729644  1.56088414  0.72122164
O   0.17417852  2.40649780 -0.31032344
H  -2.84643692 -1.18687936  0.30052108
H  -2.73855636  0.12488064  1.48518108
H  -3.43476469  0.43782300 -0.10749072
H  -1.14784980 -0.75636781 -1.95666852
H   1.41351936 -0.43215664 -1.89722108
H   2.52839028 -0.84199464  1.55109772
H   3.23335864  0.35570436  0.45534172
H   2.91589600 -1.29552964 -0.13688492
17
mode=-389.2603 cm^-1 phase=-0.555570
C  -2.70394643 -0.10523405  0.40095652
C  -1.39776075  0.31253401 -0.14496333
C  -0.66645279 -0.23031169 -1.14336163
C   0.74387642 -0.16648721 -1.07524479
N   1.23036826 -0.09512916  0.15869611
C   2.56783211 -0.50887369  0.50196605
N   0.56988576  0.37790448  1.19081611
S  -0.49093331  1.58906994  0.72031242
O   0.18054305  2.41104389 -0.31396031
H  -2.84370926 -1.18778858  0.30324874
H  -2.73946558  0.12397142  1.48790874
H  -3.42385406  0.43782300 -0.10930916
H  -1.15239589 -0.73818343 -1.96303305
H   1.41442858 -0.43124742 -1.89994874
H   2.52657184 -0.84108542  1.55291616
H   3.23244942  0.35661358  0.45716016
H   2.91589600 -1.29462042 -0.13415726
17
mode=-389.2603 cm^-1 phase=-0.382683
C  -2.68320001 -0.11249530  0.41444169
C  -1.36145452  0.29282491 -0.10969442
C  -0.65711691 -0.22616240 -1.15166020
C   0.74283910 -0.17582309 -1.08561799
N   1.22725630 -0.09720380  0.15350950
C   2.56264550 -0.50472440  0.50922730
N   0.51387043  0.34471022  1.16592041
S  -0.49508260  1.62122688  0.71927510
O   0.18780430  2.41623050 -0.31810960
H  -2.84059730 -1.18882590  0.30636070
H  -2.74050290  0.12293410  1.49102070
H  -3.41140621  0.43782300 -0.11138380
H  -1.15758250 -0.71743701 -1.97029430
H   1.41546590 -0.43021010 -1.90306070
H   2.52449720 -0.84004810  1.55499080
H   3.23141210  0.35765090  0.45923480
H   2.91589600 -1.29358310 -0.13104530
17
mode=-389.2603 cm^-1 phase=-0.195090
C  -2.66068884 -0.12037421  0.42907395
C  -1.32205997  0.27143930 -0.07142543
C  -0.64698688 -0.22166017 -1.16066466
C   0.74171354 -0.18595312 -1.09687358
N   1.22387963 -0.09945492  0.14788171
C   2.55701771 -0.50022217  0.51710621
N   0.45309026  0.30869234  1.13890701
S  -0.49958483  1.65611920  0.71814954
O   0.19568321  2.42185829 -0.32261183
H  -2.83722063 -1.18995146  0.30973737
H  -2.74162846  0.12180854  1.49439737
H  -3.39789950  0.43782300 -0.11363492
H  -1.16321029 -0.69492584 -1.97817321
H   1.41659146 -0.42908454 -1.90643737
H   2.52224608 -0.83892254  1.55724192
H   3.23028654  0.35877646  0.46148592
H   2.91589600 -1.29245754 -0.12766863
