      -----------------------------------------------------------      
     |                   =====================                   |     
     |                           x T B                           |     
     |                   =====================                   |     
     |                         S. Grimme                         |     
     |          Mulliken Center for Theoretical Chemistry        |     
     |                    University of Bonn                     |     
      -----------------------------------------------------------      

   * xtb version 6.7.1 (edcfbbe) compiled by 'conda@3ef47c1a292c' on 2024-11-25

   xtb is free software: you can redistribute it and/or modify it under
   the terms of the GNU Lesser General Public License as published by
   the Free Software Foundation, either version 3 of the License, or
   (at your option) any later version.
   
   xtb is distributed in the hope that it will be useful,
   but WITHOUT ANY WARRANTY; without even the implied warranty of
   MERCHANTABILITY or FITNESS FOR A PARTICULAR PURPOSE.  See the
   GNU Lesser General Public License for more details.
   
   Cite this work as:
   * C. Bannwarth, E. Caldeweyher, S. Ehlert, A. Hansen, P. Pracht,
     J. Seibert, S. Spicher, S. Grimme, WIREs Comput. Mol. Sci., 2020, 11,
     e01493. DOI: 10.1002/wcms.1493
   
   for GFN2-xTB:
   * C. Bannwarth, S. Ehlert and S. Grimme., J. Chem. Theory Comput., 2019,
     15, 1652-1671. DOI: 10.1021/acs.jctc.8b01176
   for GFN1-xTB:
   * S. Grimme, C. Bannwarth, P. Shushkov, J. Chem. Theory Comput., 2017,
     13, 1989-2009. DOI: 10.1021/acs.jctc.7b00118
   for GFN0-xTB:
   * P. Pracht, E. Caldeweyher, S. Ehlert, S. Grimme, ChemRxiv, 2019, preprint.
     DOI: 10.26434/chemrxiv.8326202.v1
   for GFN-FF:
   * S. Spicher and S. Grimme, Angew. Chem. Int. Ed., 2020, 59, 15665-15673.
     DOI: 10.1002/anie.202004239
   
   for ALPB and GBSA implicit solvation:
   * S. Ehlert, M. Stahn, S. Spicher, S. Grimme, J. Chem. Theory Comput.,
     2021, 17, 4250-4261. DOI: 10.1021/acs.jctc.1c00471
   
   for ddCOSMO and CPCM-X implicit solvation:
   * M. Stahn, S. Ehlert, S. Grimme, J. Phys. Chem. A,
     2023, XX, XXXX-XXXX. DOI: 10.1021/acs.jpca.3c04382
   
   for DFT-D4:
   * E. Caldeweyher, C. Bannwarth and S. Grimme, J. Chem. Phys., 2017,
     147, 034112. DOI: 10.1063/1.4993215
   * E. Caldeweyher, S. Ehlert, A. Hansen, H. Neugebauer, S. Spicher,
     C. Bannwarth and S. Grimme, J. Chem. Phys., 2019, 150, 154122.
     DOI: 10.1063/1.5090222
   * E. Caldeweyher, J.-M. Mewes, S. Ehlert and S. Grimme, Phys. Chem. Chem. Phys.
     2020, 22, 8499-8512. DOI: 10.1039/D0CP00502A
   
   for sTDA-xTB:
   * S. Grimme and C. Bannwarth, J. Chem. Phys., 2016, 145, 054103.
     DOI: 10.1063/1.4959605
   
   in the mass-spec context:
   * V. Asgeirsson, C. Bauer and S. Grimme, Chem. Sci., 2017, 8, 4879.
     DOI: 10.1039/c7sc00601b
   * J. Koopman and S. Grimme, ACS Omega 2019, 4, 12, 15120-15133.
     DOI: 10.1021/acsomega.9b02011
   
   for metadynamics refer to:
   * S. Grimme, J. Chem. Theory Comput., 2019, 155, 2847-2862
     DOI: 10.1021/acs.jctc.9b00143
   
   for SPH calculations refer to:
   * S. Spicher and S. Grimme, J. Chem. Theory Comput., 2021, 17, 1701-1714
     DOI: 10.1021/acs.jctc.0c01306
   
   for ONIOM refer to:
   * C. Plett, A. Katbashev, S. Ehlert, S. Grimme, M. Bursch,
     Phys. Chem. Chem. Phys., 2023, 25, 17860-17868. DOI: 10.1039/D3CP02178E
   
   for DIPRO refer to:
   * J. Kohn, N. Gildemeister, S. Grimme, D. Fazzi, A. Hansen,
     J. Chem. Phys., 2023, just accepted.
   
   for PTB refer to:
   * S. Grimme, M. Mueller, A. Hansen, J. Chem. Phys., 2023, 158, 124111.
     DOI: 10.1063/5.0137838
   
   with help from (in alphabetical order)
   P. Atkinson, C. Bannwarth, F. Bohle, G. Brandenburg, E. Caldeweyher
   M. Checinski, S. Dohm, S. Ehlert, S. Ehrlich, I. Gerasimov, C. Hölzer
   A. Katbashev, J. Kohn, J. Koopman, C. Lavigne, S. Lehtola, F. März, M. Müller,
   F. Musil, H. Neugebauer, J. Pisarek, C. Plett, P. Pracht, F. Pultar,
   J. Seibert, P. Shushkov, S. Spicher, M. Stahn, M. Steiner, T. Strunk,
   J. Stückrath, T. Rose, and J. Unsleber
   
 * started run on 2026/08/20 at 02:22:02.579     
   ID    Z sym.   atoms
    1    6 C      1-4, 6
    2    7 N      5, 7
    3   16 S      8
    4    8 O      9
    5    1 H      10-17

           -------------------------------------------------
          |                Calculation Setup                |
           -------------------------------------------------

          program call               : xtb ../../../B_start_raw.xyz --opt tight --gfn 2
          coordinate file            : ../../../B_start_raw.xyz
          omp threads                :                    16


           -------------------------------------------------
          |                 G F N 2 - x T B                 |
           -------------------------------------------------

        Reference                      10.1021/acs.jctc.8b01176
      * Hamiltonian:
        H0-scaling (s, p, d)           1.850000    2.230000    2.230000
        zeta-weighting                 0.500000
      * Dispersion:
        s8                             2.700000
        a1                             0.520000
        a2                             5.000000
        s9                             5.000000
      * Repulsion:
        kExp                           1.500000    1.000000
        rExp                           1.000000
      * Coulomb:
        alpha                          2.000000
        third order                    shell-resolved
        anisotropic                    true
        a3                             3.000000
        a5                             4.000000
        cn-shift                       1.200000
        cn-exp                         4.000000
        max-rad                        5.000000


          ...................................................
          :                      SETUP                      :
          :.................................................:
          :  # basis functions                  50          :
          :  # atomic orbitals                  49          :
          :  # shells                           27          :
          :  # electrons                        50          :
          :  max. iterations                   250          :
          :  Hamiltonian                  GFN2-xTB          :
          :  restarted?                      false          :
          :  GBSA solvation                  false          :
          :  PC potential                    false          :
          :  electronic temp.          300.0000000     K    :
          :  accuracy                    1.0000000          :
          :  -> integral cutoff          0.2500000E+02      :
          :  -> integral neglect         0.1000000E-07      :
          :  -> SCF convergence          0.1000000E-05 Eh   :
          :  -> wf. convergence          0.1000000E-03 e    :
          :  Broyden damping             0.4000000          :
          :  net charge                          0          :
          :  unpaired electrons                  0          :
          ...................................................

 iter      E             dE          RMSdq      gap      omega  full diag
   1    -28.0275294 -0.280275E+02  0.482E+00    2.61       0.0  T
   2    -28.1230477 -0.955183E-01  0.304E+00    1.90       1.0  T
   3    -28.1268129 -0.376516E-02  0.161E+00    2.04       1.0  T
   4    -28.1233081  0.350480E-02  0.610E-01    1.96       1.0  T
   5    -28.1268106 -0.350250E-02  0.351E-01    2.03       1.0  T
   6    -28.1275881 -0.777542E-03  0.108E-01    2.00       1.0  T
   7    -28.1276439 -0.557251E-04  0.524E-02    2.01       1.0  T
   8    -28.1276660 -0.221182E-04  0.262E-02    2.01       1.0  T
   9    -28.1276675 -0.157281E-05  0.957E-03    2.01       2.5  T
  10    -28.1276678 -0.232662E-06  0.281E-03    2.01       8.6  T
  11    -28.1276678 -0.398099E-07  0.157E-03    2.01      15.4  T
  12    -28.1276678 -0.259540E-08  0.351E-04    2.01      69.0  T
  13    -28.1276678 -0.359368E-09  0.140E-04    2.01     173.5  T

   *** convergence criteria satisfied after 13 iterations ***

         #    Occupation            Energy/Eh            Energy/eV
      -------------------------------------------------------------
         1        2.0000           -0.7314552             -19.9039
       ...           ...                  ...                  ...
        19        2.0000           -0.4652033             -12.6588
        20        2.0000           -0.4539843             -12.3535
        21        2.0000           -0.4357294             -11.8568
        22        2.0000           -0.4085367             -11.1168
        23        2.0000           -0.3737755             -10.1710
        24        2.0000           -0.3668745              -9.9832
        25        2.0000           -0.3606973              -9.8151 (HOMO)
        26                         -0.2868990              -7.8069 (LUMO)
        27                         -0.2022082              -5.5024
        28                         -0.1927528              -5.2451
        29                         -0.1280344              -3.4840
        30                         -0.0668388              -1.8188
       ...                                ...                  ...
        49                          0.7917121              21.5436
      -------------------------------------------------------------
                  HL-Gap            0.0737983 Eh            2.0082 eV
             Fermi-level           -0.3237981 Eh           -8.8110 eV

 SCC (total)                   0 d,  0 h,  0 min,  5.102 sec
 SCC setup                      ...        0 min,  0.031 sec (  0.608%)
 Dispersion                     ...        0 min,  0.088 sec (  1.728%)
 classical contributions        ...        0 min,  0.053 sec (  1.042%)
 integral evaluation            ...        0 min,  0.172 sec (  3.377%)
 iterations                     ...        0 min,  4.287 sec ( 84.026%)
 molecular gradient             ...        0 min,  0.470 sec (  9.216%)
 printout                       ...        0 min,  0.000 sec (  0.003%)

         :::::::::::::::::::::::::::::::::::::::::::::::::::::
         ::                     SUMMARY                     ::
         :::::::::::::::::::::::::::::::::::::::::::::::::::::
         :: total energy             -27.848001518117 Eh    ::
         :: gradient norm              0.139215068984 Eh/a0 ::
         :: HOMO-LUMO gap              2.008152760843 eV    ::
         ::.................................................::
         :: SCC energy               -28.127646417334 Eh    ::
         :: -> isotropic ES            0.061855966063 Eh    ::
         :: -> anisotropic ES          0.000666843478 Eh    ::
         :: -> anisotropic XC          0.016641712610 Eh    ::
         :: -> dispersion             -0.014730682389 Eh    ::
         :: repulsion energy           0.279644899216 Eh    ::
         :: add. restraining           0.000000000000 Eh    ::
         :: total charge              -0.000000000000 e     ::
         :::::::::::::::::::::::::::::::::::::::::::::::::::::

      ----------------------------------------------------------- 
     |                   =====================                   |
     |                        A N C O P T                        |
     |                   =====================                   |
     |               Approximate Normal Coordinate               |
     |                Rational Function Optimizer                |
      ----------------------------------------------------------- 
      ----------------------------------------------------------- 
     |                   =====================                   |
     |                        A N C O P T                        |
     |                   =====================                   |
     |               Approximate Normal Coordinate               |
     |                Rational Function Optimizer                |
      ----------------------------------------------------------- 

          ...................................................
          :                      SETUP                      :
          :.................................................:
          :   optimization level             tight          :
          :   max. optcycles                   200          :
          :   ANC micro-cycles                  20          :
          :   degrees of freedom                45          :
          :.................................................:
          :   RF solver                   davidson          :
          :   write xtbopt.log                true          :
          :   linear?                        false          :
          :   energy convergence         0.1000000E-05 Eh   :
          :   grad. convergence          0.8000000E-03 Eh/α :
          :   maxmium RF displ.          1.0000000          :
          :   Hlow (freq-cutoff)         0.1000000E-01      :
          :   Hmax (freq-cutoff)         5.0000000          :
          :   S6 in model hess.         20.0000000          :
          ...................................................

generating ANC from exact Hessian ...
Using Lindh-Hessian (1995)
 Shifting diagonal of input Hessian by    7.3643261055589392E-003
 Lowest  eigenvalues of input Hessian
    0.000000    0.000000    0.000000    0.000000    0.000000    0.000000
    0.010000    0.014510    0.016321    0.018338    0.020371    0.024082
    0.028117    0.033650    0.037176    0.048607    0.066666    0.069424
 Highest eigenvalues
    1.298615    1.461254    1.710035    1.904189    2.061674    2.115310


........................................................................
.............................. CYCLE    1 ..............................
........................................................................

 iter      E             dE          RMSdq      gap      omega  full diag
   1    -28.1276678 -0.281277E+02  0.600E-05    2.01       0.0  T
   2    -28.1276678  0.233058E-11  0.478E-05    2.01     507.5  T
   3    -28.1276678 -0.538947E-11  0.355E-05    2.01     683.6  T
     SCC iter.                  ...        0 min,  0.638 sec
     gradient                   ...        0 min,  0.436 sec
 * total energy  :   -27.8480015 Eh     change       -0.5411493E-10 Eh
   gradient norm :     0.1392151 Eh/α   predicted     0.0000000E+00 (-100.00%)
   displ. norm   :     0.2994227 α      lambda       -0.2206116E-01
   maximum displ.:     0.1340265 α      in ANC's #9, #26, #5, ...

........................................................................
.............................. CYCLE    2 ..............................
........................................................................

 iter      E             dE          RMSdq      gap      omega  full diag
   1    -28.1657586 -0.281658E+02  0.495E-01    2.15       0.0  T
   2    -28.1637834  0.197519E-02  0.597E-01    2.20       1.0  T
   3    -28.1681737 -0.439033E-02  0.168E-01    2.15       1.0  T
   4    -28.1681746 -0.833388E-06  0.639E-02    2.16       1.0  T
   5    -28.1681851 -0.105372E-04  0.171E-02    2.16       1.4  T
   6    -28.1681854 -0.292112E-06  0.635E-03    2.16       3.8  T
   7    -28.1681856 -0.235459E-06  0.291E-03    2.16       8.3  T
   8    -28.1681857 -0.718842E-07  0.144E-03    2.16      16.9  T
   9    -28.1681857 -0.612027E-08  0.400E-04    2.16      60.6  T
  10    -28.1681857 -0.438298E-09  0.213E-04    2.16     113.8  T
     SCC iter.                  ...        0 min,  2.961 sec
     gradient                   ...        0 min,  0.432 sec
 * total energy  :   -27.8645605 Eh     change       -0.1655895E-01 Eh
   gradient norm :     0.0776441 Eh/α   predicted    -0.1201952E-01 ( -27.41%)
   displ. norm   :     0.3221588 α      lambda       -0.1130696E-01
   maximum displ.:     0.1735834 α      in ANC's #9, #5, #4, ...

........................................................................
.............................. CYCLE    3 ..............................
........................................................................

 iter      E             dE          RMSdq      gap      omega  full diag
   1    -28.1906582 -0.281907E+02  0.576E-01    2.29       0.0  T
   2    -28.1876553  0.300298E-02  0.744E-01    2.32       1.0  T
   3    -28.1947727 -0.711744E-02  0.183E-01    2.29       1.0  T
   4    -28.1947567  0.159995E-04  0.802E-02    2.29       1.0  T
   5    -28.1947758 -0.190831E-04  0.346E-02    2.29       1.0  T
   6    -28.1947879 -0.121339E-04  0.122E-02    2.29       2.0  T
   7    -28.1947889 -0.972095E-06  0.344E-03    2.29       7.0  T
   8    -28.1947889 -0.382604E-07  0.149E-03    2.29      16.3  T
   9    -28.1947889 -0.324792E-08  0.616E-04    2.29      39.4  T
  10    -28.1947889 -0.545672E-09  0.229E-04    2.29     106.0  T
     SCC iter.                  ...        0 min,  2.425 sec
     gradient                   ...        0 min,  0.463 sec
 * total energy  :   -27.8698124 Eh     change       -0.5251944E-02 Eh
   gradient norm :     0.0290723 Eh/α   predicted    -0.6240241E-02 (  18.82%)
   displ. norm   :     0.1341385 α      lambda       -0.1169490E-02
   maximum displ.:     0.0745687 α      in ANC's #5, #3, #4, ...

........................................................................
.............................. CYCLE    4 ..............................
........................................................................

 iter      E             dE          RMSdq      gap      omega  full diag
   1    -28.1900082 -0.281900E+02  0.142E-01    2.27       0.0  T
   2    -28.1898889  0.119312E-03  0.147E-01    2.27       1.0  T
   3    -28.1901737 -0.284879E-03  0.486E-02    2.27       1.0  T
   4    -28.1901812 -0.747166E-05  0.166E-02    2.27       1.5  T
   5    -28.1901819 -0.715401E-06  0.814E-03    2.27       3.0  T
   6    -28.1901826 -0.685421E-06  0.330E-03    2.27       7.4  T
   7    -28.1901827 -0.639841E-07  0.631E-04    2.27      38.4  T
   8    -28.1901827 -0.201236E-09  0.327E-04    2.27      74.1  T
     SCC iter.                  ...        0 min,  1.813 sec
     gradient                   ...        0 min,  0.384 sec
 * total energy  :   -27.8706039 Eh     change       -0.7915275E-03 Eh
   gradient norm :     0.0108976 Eh/α   predicted    -0.5952689E-03 ( -24.79%)
   displ. norm   :     0.1844365 α      lambda       -0.5264533E-03
   maximum displ.:     0.1018267 α      in ANC's #5, #3, #4, ...

........................................................................
.............................. CYCLE    5 ..............................
........................................................................

 iter      E             dE          RMSdq      gap      omega  full diag
   1    -28.1891319 -0.281891E+02  0.912E-02    2.27       0.0  T
   2    -28.1891261  0.574207E-05  0.572E-02    2.27       1.0  T
   3    -28.1891293 -0.316632E-05  0.511E-02    2.28       1.0  T
   4    -28.1891539 -0.246471E-04  0.113E-02    2.27       2.1  T
   5    -28.1891546 -0.680241E-06  0.552E-03    2.27       4.4  T
   6    -28.1891549 -0.249715E-06  0.259E-03    2.27       9.4  T
   7    -28.1891549 -0.422943E-07  0.675E-04    2.27      35.9  T
   8    -28.1891549 -0.456978E-09  0.341E-04    2.27      71.2  T
     SCC iter.                  ...        0 min,  2.228 sec
     gradient                   ...        0 min,  0.416 sec
 * total energy  :   -27.8709361 Eh     change       -0.3321972E-03 Eh
   gradient norm :     0.0049878 Eh/α   predicted    -0.2721806E-03 ( -18.07%)
   displ. norm   :     0.1243968 α      lambda       -0.1509654E-03
   maximum displ.:     0.0740931 α      in ANC's #3, #1, #5, ...

........................................................................
.............................. CYCLE    6 ..............................
........................................................................

 iter      E             dE          RMSdq      gap      omega  full diag
   1    -28.1898372 -0.281898E+02  0.521E-02    2.28       0.0  T
   2    -28.1898336  0.361997E-05  0.340E-02    2.28       1.0  T
   3    -28.1898373 -0.369173E-05  0.289E-02    2.28       1.0  T
   4    -28.1898448 -0.747131E-05  0.668E-03    2.28       3.6  T
   5    -28.1898451 -0.281333E-06  0.349E-03    2.28       6.9  T
   6    -28.1898452 -0.109875E-06  0.155E-03    2.28      15.7  T
   7    -28.1898452 -0.534127E-08  0.489E-04    2.28      49.6  T
   8    -28.1898452 -0.236941E-09  0.149E-04    2.28     162.2  T
     SCC iter.                  ...        0 min,  3.241 sec
     gradient                   ...        0 min,  0.692 sec
 * total energy  :   -27.8710514 Eh     change       -0.1152176E-03 Eh
   gradient norm :     0.0042051 Eh/α   predicted    -0.7665008E-04 ( -33.47%)
   displ. norm   :     0.1933766 α      lambda       -0.1755847E-03
   maximum displ.:     0.1167673 α      in ANC's #3, #1, #2, ...

........................................................................
.............................. CYCLE    7 ..............................
........................................................................

 iter      E             dE          RMSdq      gap      omega  full diag
   1    -28.1907595 -0.281908E+02  0.840E-02    2.30       0.0  T
   2    -28.1907585  0.101533E-05  0.537E-02    2.29       1.0  T
   3    -28.1907630 -0.453394E-05  0.437E-02    2.29       1.0  T
   4    -28.1907787 -0.156891E-04  0.142E-02    2.29       1.7  T
   5    -28.1907797 -0.989488E-06  0.595E-03    2.29       4.1  T
   6    -28.1907800 -0.307353E-06  0.316E-03    2.29       7.7  T
   7    -28.1907801 -0.380808E-07  0.715E-04    2.29      33.9  T
   8    -28.1907801 -0.273875E-09  0.355E-04    2.29      68.3  T
     SCC iter.                  ...        0 min,  2.835 sec
     gradient                   ...        0 min,  0.440 sec
 * total energy  :   -27.8711819 Eh     change       -0.1305872E-03 Eh
   gradient norm :     0.0038983 Eh/α   predicted    -0.9107592E-04 ( -30.26%)
   displ. norm   :     0.2221888 α      lambda       -0.1493611E-03
   maximum displ.:     0.1296494 α      in ANC's #3, #1, #2, ...

........................................................................
.............................. CYCLE    8 ..............................
........................................................................

 iter      E             dE          RMSdq      gap      omega  full diag
   1    -28.1909803 -0.281910E+02  0.101E-01    2.30       0.0  T
   2    -28.1909864 -0.608563E-05  0.610E-02    2.29       1.0  T
   3    -28.1909840  0.233499E-05  0.484E-02    2.30       1.0  T
   4    -28.1910017 -0.176566E-04  0.206E-02    2.29       1.2  T
   5    -28.1910050 -0.332048E-05  0.651E-03    2.29       3.7  T
   6    -28.1910053 -0.244068E-06  0.397E-03    2.29       6.1  T
   7    -28.1910053 -0.912625E-07  0.850E-04    2.29      28.5  T
   8    -28.1910053 -0.590830E-09  0.437E-04    2.29      55.5  T
     SCC iter.                  ...        0 min,  2.408 sec
     gradient                   ...        0 min,  0.518 sec
 * total energy  :   -27.8712904 Eh     change       -0.1084376E-03 Eh
   gradient norm :     0.0062708 Eh/α   predicted    -0.7837044E-04 ( -27.73%)
   displ. norm   :     0.1934520 α      lambda       -0.1158447E-03
   maximum displ.:     0.1205948 α      in ANC's #1, #3, #6, ...

........................................................................
.............................. CYCLE    9 ..............................
........................................................................

 iter      E             dE          RMSdq      gap      omega  full diag
   1    -28.1909957 -0.281910E+02  0.868E-02    2.30       0.0  T
   2    -28.1910019 -0.620138E-05  0.480E-02    2.29       1.0  T
   3    -28.1909958  0.612595E-05  0.340E-02    2.29       1.0  T
   4    -28.1910024 -0.668153E-05  0.190E-02    2.29       1.3  T
   5    -28.1910066 -0.418698E-05  0.527E-03    2.29       4.6  T
   6    -28.1910067 -0.628533E-07  0.354E-03    2.29       6.8  T
   7    -28.1910068 -0.976692E-07  0.767E-04    2.29      31.6  T
   8    -28.1910068 -0.491966E-09  0.346E-04    2.29      70.0  T
     SCC iter.                  ...        0 min,  2.532 sec
     gradient                   ...        0 min,  0.583 sec
 * total energy  :   -27.8713774 Eh     change       -0.8704568E-04 Eh
   gradient norm :     0.0078670 Eh/α   predicted    -0.6008906E-04 ( -30.97%)
   displ. norm   :     0.1833476 α      lambda       -0.1265591E-03
   maximum displ.:     0.1235981 α      in ANC's #1, #3, #6, ...

........................................................................
.............................. CYCLE   10 ..............................
........................................................................

 iter      E             dE          RMSdq      gap      omega  full diag
   1    -28.1910915 -0.281911E+02  0.773E-02    2.29       0.0  T
   2    -28.1910942 -0.273861E-05  0.409E-02    2.29       1.0  T
   3    -28.1910926  0.164190E-05  0.180E-02    2.29       1.3  T
   4    -28.1910945 -0.189729E-05  0.906E-03    2.29       2.7  T
   5    -28.1910951 -0.668725E-06  0.442E-03    2.29       5.5  T
   6    -28.1910951  0.268264E-08  0.281E-03    2.29       8.6  T
   7    -28.1910952 -0.108704E-06  0.730E-04    2.29      33.2  T
   8    -28.1910952 -0.366814E-09  0.179E-04    2.29     135.2  T
     SCC iter.                  ...        0 min,  2.939 sec
     gradient                   ...        0 min,  0.639 sec
 * total energy  :   -27.8714705 Eh     change       -0.9306619E-04 Eh
   gradient norm :     0.0065971 Eh/α   predicted    -0.6540659E-04 ( -29.72%)
   displ. norm   :     0.1637829 α      lambda       -0.9656251E-04
   maximum displ.:     0.1154285 α      in ANC's #1, #3, #2, ...

........................................................................
.............................. CYCLE   11 ..............................
........................................................................

 iter      E             dE          RMSdq      gap      omega  full diag
   1    -28.1907102 -0.281907E+02  0.634E-02    2.29       0.0  T
   2    -28.1907115 -0.132541E-05  0.338E-02    2.29       1.0  T
   3    -28.1907097  0.180739E-05  0.148E-02    2.29       1.6  T
   4    -28.1907121 -0.241209E-05  0.538E-03    2.29       4.5  T
   5    -28.1907121 -0.205465E-07  0.263E-03    2.29       9.2  T
   6    -28.1907121 -0.259943E-07  0.158E-03    2.29      15.4  T
   7    -28.1907122 -0.311386E-07  0.548E-04    2.29      44.3  T
   8    -28.1907122 -0.268226E-09  0.194E-04    2.29     124.9  T
     SCC iter.                  ...        0 min,  2.015 sec
     gradient                   ...        0 min,  0.592 sec
 * total energy  :   -27.8715372 Eh     change       -0.6671842E-04 Eh
   gradient norm :     0.0039498 Eh/α   predicted    -0.4957560E-04 ( -25.69%)
   displ. norm   :     0.1158639 α      lambda       -0.4588478E-04
   maximum displ.:     0.0821450 α      in ANC's #1, #3, #2, ...

........................................................................
.............................. CYCLE   12 ..............................
........................................................................

 iter      E             dE          RMSdq      gap      omega  full diag
   1    -28.1905537 -0.281906E+02  0.434E-02    2.29       0.0  T
   2    -28.1905544 -0.709233E-06  0.235E-02    2.29       1.0  T
   3    -28.1905520  0.243922E-05  0.141E-02    2.29       1.7  T
   4    -28.1905548 -0.284323E-05  0.477E-03    2.29       5.1  T
   5    -28.1905549 -0.693554E-07  0.270E-03    2.29       9.0  T
   6    -28.1905550 -0.598180E-07  0.114E-03    2.29      21.3  T
   7    -28.1905550 -0.103631E-07  0.351E-04    2.29      69.0  T
   8    -28.1905550 -0.120345E-09  0.158E-04    2.29     153.1  T
     SCC iter.                  ...        0 min,  1.595 sec
     gradient                   ...        0 min,  0.343 sec
 * total energy  :   -27.8715688 Eh     change       -0.3160203E-04 Eh
   gradient norm :     0.0020635 Eh/α   predicted    -0.2324901E-04 ( -26.43%)
   displ. norm   :     0.0896424 α      lambda       -0.2281824E-04
   maximum displ.:     0.0591242 α      in ANC's #1, #3, #2, ...

........................................................................
.............................. CYCLE   13 ..............................
........................................................................

 iter      E             dE          RMSdq      gap      omega  full diag
   1    -28.1905949 -0.281906E+02  0.329E-02    2.29       0.0  T
   2    -28.1905951 -0.203607E-06  0.180E-02    2.29       1.3  T
   3    -28.1905926  0.248829E-05  0.146E-02    2.30       1.7  T
   4    -28.1905957 -0.304178E-05  0.386E-03    2.30       6.3  T
   5    -28.1905957 -0.526186E-07  0.202E-03    2.30      12.0  T
   6    -28.1905958 -0.372062E-07  0.857E-04    2.30      28.3  T
   7    -28.1905958 -0.392226E-08  0.269E-04    2.30      90.3  T
     SCC iter.                  ...        0 min,  2.502 sec
     gradient                   ...        0 min,  0.496 sec
 * total energy  :   -27.8715846 Eh     change       -0.1579165E-04 Eh
   gradient norm :     0.0014340 Eh/α   predicted    -0.1150245E-04 ( -27.16%)
   displ. norm   :     0.0893480 α      lambda       -0.1369440E-04
   maximum displ.:     0.0657171 α      in ANC's #3, #1, #2, ...

........................................................................
.............................. CYCLE   14 ..............................
........................................................................

 iter      E             dE          RMSdq      gap      omega  full diag
   1    -28.1912879 -0.281913E+02  0.299E-02    2.30       0.0  T
   2    -28.1912880 -0.166818E-06  0.166E-02    2.30       1.5  T
   3    -28.1912866  0.143991E-05  0.104E-02    2.30       2.3  T
   4    -28.1912882 -0.163585E-05  0.308E-03    2.30       7.9  T
   5    -28.1912883 -0.128559E-07  0.185E-03    2.30      13.1  T
   6    -28.1912883 -0.376080E-07  0.577E-04    2.30      42.0  T
   7    -28.1912883 -0.152034E-08  0.261E-04    2.30      92.9  T
     SCC iter.                  ...        0 min,  1.557 sec
     gradient                   ...        0 min,  0.559 sec
 * total energy  :   -27.8715963 Eh     change       -0.1170139E-04 Eh
   gradient norm :     0.0019537 Eh/α   predicted    -0.6869773E-05 ( -41.29%)
   displ. norm   :     0.1256262 α      lambda       -0.1216054E-04
   maximum displ.:     0.1000742 α      in ANC's #3, #1, #2, ...

........................................................................
.............................. CYCLE   15 ..............................
........................................................................

 iter      E             dE          RMSdq      gap      omega  full diag
   1    -28.1902748 -0.281903E+02  0.466E-02    2.30       0.0  T
   2    -28.1902766 -0.182099E-05  0.265E-02    2.30       1.0  T
   3    -28.1902752  0.136771E-05  0.195E-02    2.30       1.2  T
   4    -28.1902775 -0.229281E-05  0.107E-02    2.30       2.3  T
   5    -28.1902787 -0.115973E-05  0.225E-03    2.30      10.8  T
   6    -28.1902787 -0.153588E-07  0.151E-03    2.30      16.0  T
   7    -28.1902787 -0.182988E-07  0.349E-04    2.30      69.6  T
   8    -28.1902787 -0.328239E-09  0.188E-04    2.30     128.9  T
     SCC iter.                  ...        0 min,  2.215 sec
     gradient                   ...        0 min,  0.345 sec
 * total energy  :   -27.8716002 Eh     change       -0.3942932E-05 Eh
   gradient norm :     0.0028947 Eh/α   predicted    -0.6122381E-05 (  55.27%)
   displ. norm   :     0.0419756 α      lambda       -0.2370800E-04
   maximum displ.:     0.0226936 α      in ANC's #3, #6, #1, ...

........................................................................
.............................. CYCLE   16 ..............................
........................................................................

 iter      E             dE          RMSdq      gap      omega  full diag
   1    -28.1910642 -0.281911E+02  0.201E-02    2.30       0.0  T
   2    -28.1910643 -0.828940E-07  0.113E-02    2.30       2.2  T
   3    -28.1910636  0.664534E-06  0.984E-03    2.30       2.5  T
   4    -28.1910647 -0.112664E-05  0.275E-03    2.30       8.8  T
   5    -28.1910648 -0.482962E-07  0.105E-03    2.30      23.0  T
   6    -28.1910648 -0.104728E-07  0.500E-04    2.30      48.5  T
   7    -28.1910648 -0.133597E-08  0.767E-05    2.30     316.1  T
     SCC iter.                  ...        0 min,  2.214 sec
     gradient                   ...        0 min,  0.579 sec
 * total energy  :   -27.8716190 Eh     change       -0.1874589E-04 Eh
   gradient norm :     0.0017788 Eh/α   predicted    -0.1187311E-04 ( -36.66%)
   displ. norm   :     0.1805330 α      lambda       -0.3735384E-04
   maximum displ.:     0.1430706 α      in ANC's #3, #4, #6, ...

........................................................................
.............................. CYCLE   17 ..............................
........................................................................

 iter      E             dE          RMSdq      gap      omega  full diag
   1    -28.1919027 -0.281919E+02  0.630E-02    2.30       0.0  T
   2    -28.1919022  0.518189E-06  0.379E-02    2.31       1.0  T
   3    -28.1918906  0.116498E-04  0.342E-02    2.30       1.0  T
   4    -28.1919060 -0.154653E-04  0.579E-03    2.30       4.2  T
   5    -28.1919062 -0.167200E-06  0.299E-03    2.30       8.1  T
   6    -28.1919063 -0.771194E-07  0.125E-03    2.30      19.3  T
   7    -28.1919063 -0.104725E-07  0.292E-04    2.30      83.2  T
   8    -28.1919063 -0.600302E-10  0.133E-04    2.30     182.6  T
     SCC iter.                  ...        0 min,  2.031 sec
     gradient                   ...        0 min,  0.481 sec
 * total energy  :   -27.8716565 Eh     change       -0.3748704E-04 Eh
   gradient norm :     0.0031544 Eh/α   predicted    -0.1894515E-04 ( -49.46%)
   displ. norm   :     0.2053928 α      lambda       -0.4769188E-04
   maximum displ.:     0.1768340 α      in ANC's #3, #4, #6, ...

........................................................................
.............................. CYCLE   18 ..............................
........................................................................

 iter      E             dE          RMSdq      gap      omega  full diag
   1    -28.1910740 -0.281911E+02  0.635E-02    2.31       0.0  T
   2    -28.1910746 -0.591711E-06  0.367E-02    2.31       1.0  T
   3    -28.1910714  0.323498E-05  0.158E-02    2.30       1.5  T
   4    -28.1910746 -0.326406E-05  0.603E-03    2.31       4.0  T
   5    -28.1910750 -0.379071E-06  0.234E-03    2.31      10.4  T
   6    -28.1910750 -0.271168E-07  0.115E-03    2.31      21.1  T
   7    -28.1910750 -0.149666E-07  0.295E-04    2.31      82.1  T
   8    -28.1910750 -0.167063E-09  0.119E-04    2.31     204.0  T
     SCC iter.                  ...        0 min,  1.813 sec
     gradient                   ...        0 min,  0.359 sec
 * total energy  :   -27.8716993 Eh     change       -0.4282490E-04 Eh
   gradient norm :     0.0038168 Eh/α   predicted    -0.2485205E-04 ( -41.97%)
   displ. norm   :     0.5615954 α      lambda       -0.1511754E-03
   maximum displ.:     0.4636853 α      in ANC's #3, #4, #6, ...

........................................................................
.............................. CYCLE   19 ..............................
........................................................................

 iter      E             dE          RMSdq      gap      omega  full diag
   1    -28.1840166 -0.281840E+02  0.181E-01    2.30       0.0  T
   2    -28.1840267 -0.100353E-04  0.104E-01    2.30       1.0  T
   3    -28.1840180  0.868196E-05  0.315E-02    2.30       1.0  T
   4    -28.1840265 -0.852533E-05  0.143E-02    2.30       1.7  T
   5    -28.1840291 -0.253917E-05  0.476E-03    2.30       5.1  T
   6    -28.1840290  0.945326E-07  0.425E-03    2.30       5.7  T
   7    -28.1840292 -0.231168E-06  0.651E-04    2.30      37.3  T
   8    -28.1840292 -0.505352E-09  0.256E-04    2.30      94.9  T
     SCC iter.                  ...        0 min,  2.055 sec
     gradient                   ...        0 min,  0.345 sec
 * total energy  :   -27.8716126 Eh     change        0.8667465E-04 Eh
   gradient norm :     0.0143181 Eh/α   predicted    -0.9942172E-04 (-214.71%)
   displ. norm   :     0.2832932 α      lambda       -0.5326992E-03
   maximum displ.:     0.2508687 α      in ANC's #3, #4, #6, ...

........................................................................
.............................. CYCLE   20 ..............................
........................................................................

 iter      E             dE          RMSdq      gap      omega  full diag
   1    -28.1903500 -0.281904E+02  0.102E-01    2.30       0.0  T
   2    -28.1903573 -0.729377E-05  0.573E-02    2.30       1.0  T
   3    -28.1903568  0.541144E-06  0.171E-02    2.30       1.4  T
   4    -28.1903563  0.463255E-06  0.115E-02    2.30       2.1  T
   5    -28.1903580 -0.166236E-05  0.386E-03    2.30       6.3  T
   6    -28.1903581 -0.729911E-07  0.808E-04    2.30      30.0  T
   7    -28.1903581  0.842011E-09  0.537E-04    2.30      45.1  T
     SCC iter.                  ...        0 min,  2.063 sec
     gradient                   ...        0 min,  0.385 sec
 * total energy  :   -27.8717717 Eh     change       -0.1590824E-03 Eh
   gradient norm :     0.0067775 Eh/α   predicted    -0.2877270E-03 (  80.87%)
   displ. norm   :     0.0567275 α      lambda       -0.1105083E-03
   maximum displ.:     0.0392982 α      in ANC's #2, #1, #9, ...
 * RMSD in coord.:     0.5249016 α      energy gain  -0.2377019E-01 Eh

generating ANC from exact Hessian ...
Using Lindh-Hessian (1995)
 Shifting diagonal of input Hessian by    6.6282087629602002E-003
 Lowest  eigenvalues of input Hessian
    0.000000    0.000000    0.000000    0.000000    0.000000    0.000000
    0.010000    0.014563    0.017313    0.019041    0.022190    0.027055
    0.029566    0.035815    0.039922    0.061381    0.073457    0.076672
 Highest eigenvalues
    1.413784    1.496257    1.847787    2.080468    2.264100    2.507559


........................................................................
.............................. CYCLE   21 ..............................
........................................................................

 iter      E             dE          RMSdq      gap      omega  full diag
   1    -28.1914533 -0.281915E+02  0.432E-02    2.31       0.0  T
   2    -28.1914552 -0.186215E-05  0.249E-02    2.31       1.0  T
   3    -28.1914541  0.103971E-05  0.144E-02    2.31       1.7  T
   4    -28.1914556 -0.148096E-05  0.504E-03    2.31       4.8  T
   5    -28.1914559 -0.254674E-06  0.189E-03    2.31      12.9  T
   6    -28.1914558  0.485395E-08  0.130E-03    2.31      18.7  T
   7    -28.1914559 -0.214107E-07  0.400E-04    2.31      60.6  T
   8    -28.1914559 -0.952454E-09  0.179E-04    2.31     135.3  T
     SCC iter.                  ...        0 min,  1.650 sec
     gradient                   ...        0 min,  0.374 sec
 * total energy  :   -27.8718050 Eh     change       -0.3331408E-04 Eh
   gradient norm :     0.0031979 Eh/α   predicted     0.0000000E+00 (-100.00%)
   displ. norm   :     0.0326917 α      lambda       -0.3256682E-04
   maximum displ.:     0.0192727 α      in ANC's #1, #2, #3, ...

........................................................................
.............................. CYCLE   22 ..............................
........................................................................

 iter      E             dE          RMSdq      gap      omega  full diag
   1    -28.1915193 -0.281915E+02  0.171E-02    2.31       0.0  T
   2    -28.1915190  0.324939E-06  0.117E-02    2.31       2.1  T
   3    -28.1915193 -0.370336E-06  0.925E-03    2.31       2.6  T
   4    -28.1915201 -0.753804E-06  0.173E-03    2.31      14.0  T
   5    -28.1915201 -0.107050E-07  0.981E-04    2.31      24.7  T
   6    -28.1915201 -0.116445E-07  0.286E-04    2.31      84.8  T
     SCC iter.                  ...        0 min,  1.201 sec
     gradient                   ...        0 min,  0.341 sec
 * total energy  :   -27.8718297 Eh     change       -0.2471450E-04 Eh
   gradient norm :     0.0014901 Eh/α   predicted    -0.1630012E-04 ( -34.05%)
   displ. norm   :     0.1091779 α      lambda       -0.3579033E-04
   maximum displ.:     0.0691565 α      in ANC's #2, #1, #3, ...

........................................................................
.............................. CYCLE   23 ..............................
........................................................................

 iter      E             dE          RMSdq      gap      omega  full diag
   1    -28.1913530 -0.281914E+02  0.423E-02    2.30       0.0  T
   2    -28.1913511  0.193920E-05  0.276E-02    2.30       1.0  T
   3    -28.1913534 -0.229351E-05  0.230E-02    2.30       1.1  T
   4    -28.1913579 -0.449938E-05  0.476E-03    2.30       5.1  T
   5    -28.1913579 -0.437143E-07  0.223E-03    2.30      10.9  T
   6    -28.1913580 -0.622051E-07  0.766E-04    2.30      31.7  T
   7    -28.1913580 -0.158632E-08  0.207E-04    2.30     117.1  T
     SCC iter.                  ...        0 min,  2.072 sec
     gradient                   ...        0 min,  0.362 sec
 * total energy  :   -27.8718611 Eh     change       -0.3136903E-04 Eh
   gradient norm :     0.0028455 Eh/α   predicted    -0.1798875E-04 ( -42.65%)
   displ. norm   :     0.0666749 α      lambda       -0.2528881E-04
   maximum displ.:     0.0462576 α      in ANC's #2, #1, #3, ...

........................................................................
.............................. CYCLE   24 ..............................
........................................................................

 iter      E             dE          RMSdq      gap      omega  full diag
   1    -28.1912608 -0.281913E+02  0.227E-02    2.30       0.0  T
   2    -28.1912605  0.248963E-06  0.140E-02    2.30       1.7  T
   3    -28.1912602  0.303299E-06  0.126E-02    2.30       1.9  T
   4    -28.1912617 -0.144481E-05  0.263E-03    2.30       9.2  T
   5    -28.1912617 -0.327150E-07  0.842E-04    2.30      28.8  T
   6    -28.1912617 -0.730186E-09  0.560E-04    2.30      43.3  T
     SCC iter.                  ...        0 min,  1.229 sec
     gradient                   ...        0 min,  0.275 sec
 * total energy  :   -27.8718848 Eh     change       -0.2370400E-04 Eh
   gradient norm :     0.0030565 Eh/α   predicted    -0.1270173E-04 ( -46.42%)
   displ. norm   :     0.2392047 α      lambda       -0.1013036E-03
   maximum displ.:     0.1634098 α      in ANC's #2, #3, #1, ...

........................................................................
.............................. CYCLE   25 ..............................
........................................................................

 iter      E             dE          RMSdq      gap      omega  full diag
   1    -28.1903988 -0.281904E+02  0.811E-02    2.30       0.0  T
   2    -28.1903968  0.202891E-05  0.495E-02    2.29       1.0  T
   3    -28.1903882  0.859626E-05  0.450E-02    2.29       1.0  T
   4    -28.1904078 -0.196402E-04  0.891E-03    2.29       2.7  T
   5    -28.1904083 -0.468037E-06  0.277E-03    2.29       8.8  T
   6    -28.1904082  0.203178E-07  0.174E-03    2.29      13.9  T
   7    -28.1904083 -0.383911E-07  0.509E-04    2.29      47.7  T
   8    -28.1904083 -0.200412E-09  0.264E-04    2.29      91.9  T
     SCC iter.                  ...        0 min,  1.456 sec
     gradient                   ...        0 min,  0.443 sec
 * total energy  :   -27.8719653 Eh     change       -0.8052292E-04 Eh
   gradient norm :     0.0044102 Eh/α   predicted    -0.5355058E-04 ( -33.50%)
   displ. norm   :     0.2752233 α      lambda       -0.1047758E-03
   maximum displ.:     0.1911296 α      in ANC's #2, #3, #1, ...

........................................................................
.............................. CYCLE   26 ..............................
........................................................................

 iter      E             dE          RMSdq      gap      omega  full diag
   1    -28.1888725 -0.281889E+02  0.913E-02    2.29       0.0  T
   2    -28.1888709  0.156721E-05  0.551E-02    2.29       1.0  T
   3    -28.1888552  0.157395E-04  0.506E-02    2.29       1.0  T
   4    -28.1888818 -0.265878E-04  0.920E-03    2.29       2.6  T
   5    -28.1888823 -0.531382E-06  0.292E-03    2.29       8.3  T
   6    -28.1888823  0.943389E-08  0.130E-03    2.29      18.7  T
   7    -28.1888823 -0.182283E-07  0.556E-04    2.29      43.6  T
   8    -28.1888823 -0.766551E-09  0.292E-04    2.29      83.2  T
     SCC iter.                  ...        0 min,  1.604 sec
     gradient                   ...        0 min,  0.414 sec
 * total energy  :   -27.8720242 Eh     change       -0.5889206E-04 Eh
   gradient norm :     0.0079666 Eh/α   predicted    -0.5635821E-04 (  -4.30%)
   displ. norm   :     0.1016730 α      lambda       -0.1287873E-03
   maximum displ.:     0.0651263 α      in ANC's #2, #3, #4, ...

........................................................................
.............................. CYCLE   27 ..............................
........................................................................

 iter      E             dE          RMSdq      gap      omega  full diag
   1    -28.1902080 -0.281902E+02  0.391E-02    2.29       0.0  T
   2    -28.1902085 -0.555605E-06  0.224E-02    2.29       1.1  T
   3    -28.1902069  0.165710E-05  0.122E-02    2.29       2.0  T
   4    -28.1902086 -0.174579E-05  0.408E-03    2.29       6.0  T
   5    -28.1902088 -0.153865E-06  0.143E-03    2.29      17.0  T
   6    -28.1902088 -0.379708E-08  0.798E-04    2.29      30.4  T
   7    -28.1902088 -0.761137E-08  0.267E-04    2.29      90.8  T
     SCC iter.                  ...        0 min,  1.382 sec
     gradient                   ...        0 min,  0.322 sec
 * total energy  :   -27.8721211 Eh     change       -0.9683655E-04 Eh
   gradient norm :     0.0053009 Eh/α   predicted    -0.6505999E-04 ( -32.81%)
   displ. norm   :     0.3461860 α      lambda       -0.1870479E-03
   maximum displ.:     0.2544470 α      in ANC's #2, #3, #4, ...

........................................................................
.............................. CYCLE   28 ..............................
........................................................................

 iter      E             dE          RMSdq      gap      omega  full diag
   1    -28.1891227 -0.281891E+02  0.105E-01    2.29       0.0  T
   2    -28.1891233 -0.536581E-06  0.619E-02    2.29       1.0  T
   3    -28.1890933  0.299726E-04  0.505E-02    2.29       1.0  T
   4    -28.1891272 -0.339331E-04  0.734E-03    2.29       3.3  T
   5    -28.1891275 -0.283184E-06  0.278E-03    2.29       8.7  T
   6    -28.1891275  0.184020E-08  0.122E-03    2.29      19.9  T
   7    -28.1891275 -0.180538E-07  0.569E-04    2.29      42.6  T
   8    -28.1891275 -0.765151E-09  0.132E-04    2.29     184.2  T
     SCC iter.                  ...        0 min,  1.324 sec
     gradient                   ...        0 min,  0.478 sec
 * total energy  :   -27.8722509 Eh     change       -0.1298642E-03 Eh
   gradient norm :     0.0084946 Eh/α   predicted    -0.1047304E-03 ( -19.35%)
   displ. norm   :     0.2561101 α      lambda       -0.3062033E-03
   maximum displ.:     0.1918876 α      in ANC's #2, #4, #3, ...

........................................................................
.............................. CYCLE   29 ..............................
........................................................................

 iter      E             dE          RMSdq      gap      omega  full diag
   1    -28.1916967 -0.281917E+02  0.789E-02    2.30       0.0  T
   2    -28.1916992 -0.246344E-05  0.469E-02    2.30       1.0  T
   3    -28.1916881  0.110770E-04  0.349E-02    2.30       1.0  T
   4    -28.1917003 -0.121792E-04  0.111E-02    2.30       2.2  T
   5    -28.1917017 -0.146026E-05  0.267E-03    2.30       9.1  T
   6    -28.1917017  0.996585E-08  0.120E-03    2.30      20.2  T
   7    -28.1917017 -0.204210E-07  0.391E-04    2.30      62.0  T
   8    -28.1917017 -0.737536E-09  0.132E-04    2.30     184.3  T
     SCC iter.                  ...        0 min,  1.798 sec
     gradient                   ...        0 min,  0.336 sec
 * total energy  :   -27.8724608 Eh     change       -0.2098838E-03 Eh
   gradient norm :     0.0058442 Eh/α   predicted    -0.1631436E-03 ( -22.27%)
   displ. norm   :     0.2583249 α      lambda       -0.1673830E-03
   maximum displ.:     0.1861511 α      in ANC's #2, #3, #4, ...

........................................................................
.............................. CYCLE   30 ..............................
........................................................................

 iter      E             dE          RMSdq      gap      omega  full diag
   1    -28.1908353 -0.281908E+02  0.746E-02    2.31       0.0  T
   2    -28.1908364 -0.108932E-05  0.434E-02    2.31       1.0  T
   3    -28.1908295  0.692065E-05  0.237E-02    2.31       1.0  T
   4    -28.1908368 -0.737041E-05  0.697E-03    2.31       3.5  T
   5    -28.1908372 -0.395485E-06  0.229E-03    2.31      10.6  T
   6    -28.1908372  0.581686E-10  0.107E-03    2.31      22.6  T
   7    -28.1908373 -0.153737E-07  0.337E-04    2.31      72.0  T
   8    -28.1908373 -0.395840E-09  0.763E-05    2.31     318.0  T
     SCC iter.                  ...        0 min,  1.583 sec
     gradient                   ...        0 min,  0.697 sec
 * total energy  :   -27.8725755 Eh     change       -0.1146570E-03 Eh
   gradient norm :     0.0070832 Eh/α   predicted    -0.8927420E-04 ( -22.14%)
   displ. norm   :     0.2834579 α      lambda       -0.4254308E-03
   maximum displ.:     0.1330951 α      in ANC's #2, #1, #7, ...

........................................................................
.............................. CYCLE   31 ..............................
........................................................................

 iter      E             dE          RMSdq      gap      omega  full diag
   1    -28.1966020 -0.281966E+02  0.130E-01    2.33       0.0  T
   2    -28.1966117 -0.974859E-05  0.783E-02    2.33       1.0  T
   3    -28.1965845  0.272827E-04  0.695E-02    2.33       1.0  T
   4    -28.1966337 -0.491894E-04  0.161E-02    2.33       1.5  T
   5    -28.1966348 -0.112157E-05  0.536E-03    2.33       4.5  T
   6    -28.1966348 -0.669523E-07  0.143E-03    2.33      17.0  T
   7    -28.1966348 -0.546452E-08  0.711E-04    2.33      34.1  T
   8    -28.1966348 -0.719275E-09  0.285E-04    2.33      85.0  T
     SCC iter.                  ...        0 min,  1.636 sec
     gradient                   ...        0 min,  0.360 sec
 * total energy  :   -27.8723855 Eh     change        0.1899446E-03 Eh
   gradient norm :     0.0165732 Eh/α   predicted    -0.2298061E-03 (-220.99%)
   displ. norm   :     0.2211656 α      lambda       -0.7018945E-03
   maximum displ.:     0.1623481 α      in ANC's #2, #3, #4, ...

........................................................................
.............................. CYCLE   32 ..............................
........................................................................

 iter      E             dE          RMSdq      gap      omega  full diag
   1    -28.1904314 -0.281904E+02  0.997E-02    2.33       0.0  T
   2    -28.1904440 -0.125813E-04  0.567E-02    2.33       1.0  T
   3    -28.1904376  0.644410E-05  0.338E-02    2.33       1.0  T
   4    -28.1904429 -0.535030E-05  0.165E-02    2.33       1.5  T
   5    -28.1904463 -0.334206E-05  0.468E-03    2.33       5.2  T
   6    -28.1904463 -0.866688E-07  0.278E-03    2.33       8.7  T
   7    -28.1904464 -0.823224E-07  0.671E-04    2.33      36.1  T
   8    -28.1904464 -0.112976E-08  0.262E-04    2.33      92.4  T
     SCC iter.                  ...        0 min,  1.752 sec
     gradient                   ...        0 min,  0.291 sec
 * total energy  :   -27.8727126 Eh     change       -0.3271043E-03 Eh
   gradient norm :     0.0071776 Eh/α   predicted    -0.3681131E-03 (  12.54%)
   displ. norm   :     0.1872607 α      lambda       -0.1113672E-03
   maximum displ.:     0.1228672 α      in ANC's #2, #4, #3, ...

........................................................................
.............................. CYCLE   33 ..............................
........................................................................

 iter      E             dE          RMSdq      gap      omega  full diag
   1    -28.1928610 -0.281929E+02  0.616E-02    2.32       0.0  T
   2    -28.1928636 -0.265278E-05  0.370E-02    2.32       1.0  T
   3    -28.1928620  0.157546E-05  0.175E-02    2.32       1.4  T
   4    -28.1928630 -0.922692E-06  0.101E-02    2.32       2.4  T
   5    -28.1928642 -0.126385E-05  0.290E-03    2.32       8.4  T
   6    -28.1928642  0.339025E-08  0.164E-03    2.32      14.8  T
   7    -28.1928643 -0.416347E-07  0.387E-04    2.32      62.7  T
   8    -28.1928643 -0.432838E-09  0.163E-04    2.32     148.4  T
     SCC iter.                  ...        0 min,  3.059 sec
     gradient                   ...        0 min,  0.613 sec
 * total energy  :   -27.8727431 Eh     change       -0.3044780E-04 Eh
   gradient norm :     0.0030849 Eh/α   predicted    -0.5763467E-04 (  89.29%)
   displ. norm   :     0.1091399 α      lambda       -0.4117627E-04
   maximum displ.:     0.0699958 α      in ANC's #2, #3, #4, ...

........................................................................
.............................. CYCLE   34 ..............................
........................................................................

 iter      E             dE          RMSdq      gap      omega  full diag
   1    -28.1924462 -0.281924E+02  0.324E-02    2.32       0.0  T
   2    -28.1924464 -0.244241E-06  0.186E-02    2.32       1.3  T
   3    -28.1924460  0.426582E-06  0.735E-03    2.32       3.3  T
   4    -28.1924463 -0.337128E-06  0.384E-03    2.32       6.3  T
   5    -28.1924465 -0.175740E-06  0.113E-03    2.32      21.5  T
   6    -28.1924465 -0.181900E-08  0.546E-04    2.32      44.4  T
   7    -28.1924465 -0.471035E-08  0.148E-04    2.32     164.0  T
     SCC iter.                  ...        0 min,  2.045 sec
     gradient                   ...        0 min,  0.528 sec
 * total energy  :   -27.8727783 Eh     change       -0.3519731E-04 Eh
   gradient norm :     0.0029012 Eh/α   predicted    -0.2083307E-04 ( -40.81%)
   displ. norm   :     0.2916502 α      lambda       -0.9580878E-04
   maximum displ.:     0.1889805 α      in ANC's #2, #3, #4, ...

........................................................................
.............................. CYCLE   35 ..............................
........................................................................

 iter      E             dE          RMSdq      gap      omega  full diag
   1    -28.1904002 -0.281904E+02  0.886E-02    2.32       0.0  T
   2    -28.1904033 -0.310454E-05  0.520E-02    2.32       1.0  T
   3    -28.1903932  0.100743E-04  0.348E-02    2.32       1.0  T
   4    -28.1904033 -0.100887E-04  0.132E-02    2.32       1.8  T
   5    -28.1904055 -0.221748E-05  0.306E-03    2.32       7.9  T
   6    -28.1904055  0.142967E-07  0.172E-03    2.32      14.1  T
   7    -28.1904056 -0.431117E-07  0.385E-04    2.32      63.1  T
   8    -28.1904056 -0.583071E-09  0.188E-04    2.32     128.7  T
     SCC iter.                  ...        0 min,  2.864 sec
     gradient                   ...        0 min,  0.291 sec
 * total energy  :   -27.8728066 Eh     change       -0.2832777E-04 Eh
   gradient norm :     0.0062415 Eh/α   predicted    -0.5197728E-04 (  83.49%)
   displ. norm   :     0.0828124 α      lambda       -0.7140580E-04
   maximum displ.:     0.0585307 α      in ANC's #2, #3, #4, ...

........................................................................
.............................. CYCLE   36 ..............................
........................................................................

 iter      E             dE          RMSdq      gap      omega  full diag
   1    -28.1922915 -0.281923E+02  0.315E-02    2.32       0.0  T
   2    -28.1922922 -0.677145E-06  0.179E-02    2.32       1.4  T
   3    -28.1922902  0.198281E-05  0.136E-02    2.32       1.8  T
   4    -28.1922925 -0.230533E-05  0.378E-03    2.32       6.4  T
   5    -28.1922926 -0.109345E-06  0.136E-03    2.32      17.8  T
   6    -28.1922926 -0.842602E-08  0.811E-04    2.32      29.9  T
   7    -28.1922926 -0.611480E-08  0.152E-04    2.32     159.3  T
     SCC iter.                  ...        0 min,  1.126 sec
     gradient                   ...        0 min,  0.374 sec
 * total energy  :   -27.8728423 Eh     change       -0.3567732E-04 Eh
   gradient norm :     0.0022173 Eh/α   predicted    -0.3594728E-04 (   0.76%)
   displ. norm   :     0.0676490 α      lambda       -0.2495864E-04
   maximum displ.:     0.0406850 α      in ANC's #2, #3, #4, ...

........................................................................
.............................. CYCLE   37 ..............................
........................................................................

 iter      E             dE          RMSdq      gap      omega  full diag
   1    -28.1927134 -0.281927E+02  0.218E-02    2.32       0.0  T
   2    -28.1927133  0.461352E-07  0.132E-02    2.32       1.8  T
   3    -28.1927126  0.732547E-06  0.121E-02    2.32       2.0  T
   4    -28.1927139 -0.134544E-05  0.249E-03    2.32       9.8  T
   5    -28.1927140 -0.522749E-07  0.638E-04    2.32      38.0  T
   6    -28.1927140  0.122023E-08  0.429E-04    2.32      56.5  T
     SCC iter.                  ...        0 min,  1.115 sec
     gradient                   ...        0 min,  0.238 sec
 * total energy  :   -27.8728632 Eh     change       -0.2095440E-04 Eh
   gradient norm :     0.0020180 Eh/α   predicted    -0.1253633E-04 ( -40.17%)
   displ. norm   :     0.2449663 α      lambda       -0.6464466E-04
   maximum displ.:     0.1485609 α      in ANC's #2, #3, #4, ...

........................................................................
.............................. CYCLE   38 ..............................
........................................................................

 iter      E             dE          RMSdq      gap      omega  full diag
   1    -28.1921790 -0.281922E+02  0.755E-02    2.32       0.0  T
   2    -28.1921782  0.793681E-06  0.452E-02    2.31       1.0  T
   3    -28.1921645  0.136927E-04  0.425E-02    2.32       1.0  T
   4    -28.1921839 -0.194636E-04  0.621E-03    2.31       3.9  T
   5    -28.1921842 -0.262212E-06  0.214E-03    2.31      11.4  T
   6    -28.1921842  0.738615E-08  0.146E-03    2.31      16.6  T
   7    -28.1921842 -0.252711E-07  0.351E-04    2.31      69.1  T
   8    -28.1921842 -0.687876E-10  0.186E-04    2.31     130.5  T
     SCC iter.                  ...        0 min,  1.206 sec
     gradient                   ...        0 min,  0.326 sec
 * total energy  :   -27.8728974 Eh     change       -0.3416113E-04 Eh
   gradient norm :     0.0036960 Eh/α   predicted    -0.3426043E-04 (   0.29%)
   displ. norm   :     0.0281678 α      lambda       -0.2613886E-04
   maximum displ.:     0.0195235 α      in ANC's #1, #6, #30, ...

........................................................................
.............................. CYCLE   39 ..............................
........................................................................

 iter      E             dE          RMSdq      gap      omega  full diag
   1    -28.1930032 -0.281930E+02  0.150E-02    2.32       0.0  T
   2    -28.1930034 -0.230555E-06  0.964E-03    2.32       2.5  T
   3    -28.1930032  0.201294E-06  0.682E-03    2.32       3.6  T
   4    -28.1930036 -0.343927E-06  0.311E-03    2.32       7.8  T
   5    -28.1930037 -0.102194E-06  0.840E-04    2.32      28.9  T
   6    -28.1930037  0.978030E-09  0.622E-04    2.32      39.0  T
     SCC iter.                  ...        0 min,  1.087 sec
     gradient                   ...        0 min,  0.256 sec
 * total energy  :   -27.8729150 Eh     change       -0.1756763E-04 Eh
   gradient norm :     0.0021960 Eh/α   predicted    -0.1308098E-04 ( -25.54%)
   displ. norm   :     0.1127320 α      lambda       -0.2046408E-04
   maximum displ.:     0.0644283 α      in ANC's #2, #3, #1, ...

........................................................................
.............................. CYCLE   40 ..............................
........................................................................

 iter      E             dE          RMSdq      gap      omega  full diag
   1    -28.1930595 -0.281931E+02  0.337E-02    2.32       0.0  T
   2    -28.1930593  0.229733E-06  0.208E-02    2.32       1.2  T
   3    -28.1930559  0.339114E-05  0.191E-02    2.32       1.3  T
   4    -28.1930604 -0.448825E-05  0.281E-03    2.32       8.6  T
   5    -28.1930604 -0.287885E-07  0.118E-03    2.32      20.5  T
   6    -28.1930604  0.283046E-08  0.744E-04    2.32      32.6  T
   7    -28.1930604 -0.719133E-08  0.210E-04    2.32     115.4  T
     SCC iter.                  ...        0 min,  1.380 sec
     gradient                   ...        0 min,  0.427 sec
 * total energy  :   -27.8729283 Eh     change       -0.1332359E-04 Eh
   gradient norm :     0.0019490 Eh/α   predicted    -0.1036354E-04 ( -22.22%)
   displ. norm   :     0.0947820 α      lambda       -0.1159475E-04
   maximum displ.:     0.0528994 α      in ANC's #2, #3, #23, ...

........................................................................
.............................. CYCLE   41 ..............................
........................................................................

 iter      E             dE          RMSdq      gap      omega  full diag
   1    -28.1933070 -0.281933E+02  0.288E-02    2.32       0.0  T
   2    -28.1933071 -0.122683E-06  0.173E-02    2.32       1.4  T
   3    -28.1933050  0.207543E-05  0.133E-02    2.32       1.8  T
   4    -28.1933074 -0.236252E-05  0.322E-03    2.32       7.5  T
   5    -28.1933074 -0.700023E-07  0.109E-03    2.32      22.2  T
   6    -28.1933074 -0.553868E-11  0.371E-04    2.32      65.4  T
   7    -28.1933074 -0.829957E-09  0.212E-04    2.32     114.4  T
     SCC iter.                  ...        0 min,  1.813 sec
     gradient                   ...        0 min,  0.349 sec
 * total energy  :   -27.8729345 Eh     change       -0.6209168E-05 Eh
   gradient norm :     0.0018005 Eh/α   predicted    -0.5821726E-05 (  -6.24%)
   displ. norm   :     0.0413596 α      lambda       -0.6303614E-05
   maximum displ.:     0.0279286 α      in ANC's #2, #23, #4, ...

........................................................................
.............................. CYCLE   42 ..............................
........................................................................

 iter      E             dE          RMSdq      gap      omega  full diag
   1    -28.1931257 -0.281931E+02  0.144E-02    2.32       0.0  T
   2    -28.1931257 -0.410355E-07  0.832E-03    2.32       2.9  T
   3    -28.1931253  0.392872E-06  0.584E-03    2.32       4.2  T
   4    -28.1931258 -0.452560E-06  0.140E-03    2.32      17.4  T
   5    -28.1931258 -0.112539E-07  0.866E-04    2.32      28.0  T
   6    -28.1931258 -0.650306E-08  0.255E-04    2.32      95.2  T
     SCC iter.                  ...        0 min,  1.264 sec
     gradient                   ...        0 min,  0.289 sec
 * total energy  :   -27.8729378 Eh     change       -0.3351407E-05 Eh
   gradient norm :     0.0013491 Eh/α   predicted    -0.3154936E-05 (  -5.86%)
   displ. norm   :     0.0552237 α      lambda       -0.3610340E-05
   maximum displ.:     0.0278969 α      in ANC's #2, #3, #4, ...
 * RMSD in coord.:     0.6387503 α      energy gain  -0.1166135E-02 Eh

generating ANC from exact Hessian ...
Using Lindh-Hessian (1995)
 Shifting diagonal of input Hessian by    6.5911534787838413E-003
 Lowest  eigenvalues of input Hessian
    0.000000    0.000000    0.000000    0.000000    0.000000    0.000000
    0.010000    0.014566    0.017460    0.019180    0.022501    0.027144
    0.029515    0.036702    0.040237    0.062361    0.073541    0.076802
 Highest eigenvalues
    1.421175    1.498068    1.852852    2.081968    2.264474    2.500164


........................................................................
.............................. CYCLE   43 ..............................
........................................................................

 iter      E             dE          RMSdq      gap      omega  full diag
   1    -28.1936321 -0.281936E+02  0.187E-02    2.31       0.0  T
   2    -28.1936321  0.366640E-07  0.116E-02    2.31       2.1  T
   3    -28.1936313  0.839437E-06  0.107E-02    2.31       2.3  T
   4    -28.1936325 -0.127382E-05  0.157E-03    2.31      15.5  T
   5    -28.1936325 -0.128510E-07  0.582E-04    2.31      41.7  T
   6    -28.1936325  0.941135E-09  0.391E-04    2.31      62.1  T
     SCC iter.                  ...        0 min,  0.951 sec
     gradient                   ...        0 min,  0.264 sec
 * total energy  :   -27.8729391 Eh     change       -0.1249692E-05 Eh
   gradient norm :     0.0013014 Eh/α   predicted     0.0000000E+00 (-100.00%)
   displ. norm   :     0.0151081 α      lambda       -0.4473275E-05
   maximum displ.:     0.0111469 α      in ANC's #2, #4, #3, ...

........................................................................
.............................. CYCLE   44 ..............................
........................................................................

 iter      E             dE          RMSdq      gap      omega  full diag
   1    -28.1930335 -0.281930E+02  0.699E-03    2.31       0.0  T
   2    -28.1930335 -0.502046E-07  0.396E-03    2.31       6.1  T
   3    -28.1930335  0.189506E-07  0.173E-03    2.31      14.0  T
   4    -28.1930335 -0.171826E-07  0.942E-04    2.31      25.7  T
   5    -28.1930335 -0.916166E-08  0.268E-04    2.31      90.5  T
     SCC iter.                  ...        0 min,  0.809 sec
     gradient                   ...        0 min,  0.259 sec
 * total energy  :   -27.8729431 Eh     change       -0.3982073E-05 Eh
   gradient norm :     0.0003505 Eh/α   predicted    -0.2236608E-05 ( -43.83%)
   displ. norm   :     0.0238451 α      lambda       -0.2406717E-05
   maximum displ.:     0.0181927 α      in ANC's #2, #4, #3, ...

........................................................................
.............................. CYCLE   45 ..............................
........................................................................

 iter      E             dE          RMSdq      gap      omega  full diag
   1    -28.1928904 -0.281929E+02  0.616E-03    2.31       0.0  T
   2    -28.1928904 -0.237752E-08  0.374E-03    2.31       6.5  T
   3    -28.1928903  0.660710E-07  0.221E-03    2.31      11.0  T
   4    -28.1928904 -0.704906E-07  0.368E-04    2.31      66.0  T
   5    -28.1928904 -0.104654E-08  0.139E-04    2.31     174.9  T
     SCC iter.                  ...        0 min,  1.100 sec
     gradient                   ...        0 min,  0.369 sec
 * total energy  :   -27.8729463 Eh     change       -0.3260568E-05 Eh
   gradient norm :     0.0006488 Eh/α   predicted    -0.1202713E-05 ( -63.11%)
   displ. norm   :     0.0881347 α      lambda       -0.8380757E-05
   maximum displ.:     0.0630359 α      in ANC's #2, #4, #3, ...

........................................................................
.............................. CYCLE   46 ..............................
........................................................................

 iter      E             dE          RMSdq      gap      omega  full diag
   1    -28.1926456 -0.281926E+02  0.219E-02    2.31       0.0  T
   2    -28.1926455  0.190428E-07  0.134E-02    2.31       1.8  T
   3    -28.1926441  0.144887E-05  0.102E-02    2.31       2.4  T
   4    -28.1926457 -0.157603E-05  0.942E-04    2.31      25.8  T
   5    -28.1926457 -0.260446E-08  0.411E-04    2.31      59.0  T
   6    -28.1926457 -0.427541E-09  0.239E-04    2.31     101.6  T
     SCC iter.                  ...        0 min,  1.849 sec
     gradient                   ...        0 min,  0.406 sec
 * total energy  :   -27.8729565 Eh     change       -0.1016108E-04 Eh
   gradient norm :     0.0015148 Eh/α   predicted    -0.4205168E-05 ( -58.61%)
   displ. norm   :     0.1284005 α      lambda       -0.9859767E-05
   maximum displ.:     0.0900747 α      in ANC's #2, #4, #3, ...

........................................................................
.............................. CYCLE   47 ..............................
........................................................................

 iter      E             dE          RMSdq      gap      omega  full diag
   1    -28.1922955 -0.281923E+02  0.319E-02    2.31       0.0  T
   2    -28.1922954  0.993118E-07  0.196E-02    2.31       1.2  T
   3    -28.1922918  0.362749E-05  0.166E-02    2.31       1.5  T
   4    -28.1922959 -0.403573E-05  0.137E-03    2.31      17.7  T
   5    -28.1922959 -0.347119E-08  0.780E-04    2.31      31.1  T
   6    -28.1922959 -0.725192E-08  0.232E-04    2.31     104.6  T
     SCC iter.                  ...        0 min,  1.911 sec
     gradient                   ...        0 min,  0.674 sec
 * total energy  :   -27.8729662 Eh     change       -0.9694006E-05 Eh
   gradient norm :     0.0024524 Eh/α   predicted    -0.4964104E-05 ( -48.79%)
   displ. norm   :     0.0520043 α      lambda       -0.7095986E-05
   maximum displ.:     0.0360717 α      in ANC's #2, #4, #3, ...

........................................................................
.............................. CYCLE   48 ..............................
........................................................................

 iter      E             dE          RMSdq      gap      omega  full diag
   1    -28.1924510 -0.281925E+02  0.131E-02    2.31       0.0  T
   2    -28.1924509  0.140936E-07  0.802E-03    2.31       3.0  T
   3    -28.1924504  0.586482E-06  0.700E-03    2.31       3.5  T
   4    -28.1924510 -0.671949E-06  0.629E-04    2.31      38.6  T
   5    -28.1924510 -0.240344E-08  0.340E-04    2.31      71.4  T
     SCC iter.                  ...        0 min,  1.439 sec
     gradient                   ...        0 min,  0.387 sec
 * total energy  :   -27.8729722 Eh     change       -0.6045155E-05 Eh
   gradient norm :     0.0021297 Eh/α   predicted    -0.3556316E-05 ( -41.17%)
   displ. norm   :     0.1123623 α      lambda       -0.1541241E-04
   maximum displ.:     0.0758285 α      in ANC's #2, #4, #3, ...

........................................................................
.............................. CYCLE   49 ..............................
........................................................................

 iter      E             dE          RMSdq      gap      omega  full diag
   1    -28.1928399 -0.281928E+02  0.287E-02    2.31       0.0  T
   2    -28.1928399  0.751962E-07  0.175E-02    2.31       1.4  T
   3    -28.1928372  0.269109E-05  0.155E-02    2.31       1.6  T
   4    -28.1928403 -0.316742E-05  0.165E-03    2.31      14.7  T
   5    -28.1928404 -0.206336E-07  0.844E-04    2.31      28.7  T
   6    -28.1928404 -0.900003E-08  0.296E-04    2.31      82.0  T
     SCC iter.                  ...        0 min,  1.205 sec
     gradient                   ...        0 min,  0.453 sec
 * total energy  :   -27.8729829 Eh     change       -0.1061655E-04 Eh
   gradient norm :     0.0010916 Eh/α   predicted    -0.7803385E-05 ( -26.50%)
   displ. norm   :     0.1173475 α      lambda       -0.5710973E-05
   maximum displ.:     0.0760311 α      in ANC's #2, #4, #3, ...

........................................................................
.............................. CYCLE   50 ..............................
........................................................................

 iter      E             dE          RMSdq      gap      omega  full diag
   1    -28.1929827 -0.281930E+02  0.303E-02    2.31       0.0  T
   2    -28.1929825  0.130446E-06  0.184E-02    2.31       1.3  T
   3    -28.1929796  0.290548E-05  0.168E-02    2.31       1.4  T
   4    -28.1929832 -0.354191E-05  0.191E-03    2.31      12.7  T
   5    -28.1929832 -0.276628E-07  0.937E-04    2.31      25.9  T
   6    -28.1929832 -0.113255E-07  0.333E-04    2.31      72.9  T
     SCC iter.                  ...        0 min,  1.169 sec
     gradient                   ...        0 min,  0.572 sec
 * total energy  :   -27.8729876 Eh     change       -0.4785937E-05 Eh
   gradient norm :     0.0006340 Eh/α   predicted    -0.2872959E-05 ( -39.97%)
   displ. norm   :     0.0096904 α      lambda       -0.2077579E-05
   maximum displ.:     0.0042416 α      in ANC's #1, #3, #4, ...

........................................................................
.............................. CYCLE   51 ..............................
........................................................................

 iter      E             dE          RMSdq      gap      omega  full diag
   1    -28.1936748 -0.281937E+02  0.791E-03    2.31       0.0  T
   2    -28.1936749 -0.899390E-07  0.437E-03    2.31       5.6  T
   3    -28.1936748  0.828930E-07  0.350E-03    2.31       6.9  T
   4    -28.1936749 -0.979190E-07  0.124E-03    2.31      19.6  T
   5    -28.1936749 -0.172291E-07  0.250E-04    2.31      97.1  T
   6    -28.1936749  0.796447E-10  0.135E-04    2.31     179.9  T
     SCC iter.                  ...        0 min,  1.139 sec
     gradient                   ...        0 min,  0.326 sec
 * total energy  :   -27.8729865 Eh     change        0.1155191E-05 Eh
   gradient norm :     0.0013236 Eh/α   predicted    -0.1038071E-05 (-189.86%)
   displ. norm   :     0.0462730 α      lambda       -0.3188578E-05
   maximum displ.:     0.0290579 α      in ANC's #2, #3, #4, ...

........................................................................
.............................. CYCLE   52 ..............................
........................................................................

 iter      E             dE          RMSdq      gap      omega  full diag
   1    -28.1931382 -0.281931E+02  0.127E-02    2.31       0.0  T
   2    -28.1931382 -0.127632E-07  0.766E-03    2.31       3.2  T
   3    -28.1931377  0.523089E-06  0.663E-03    2.31       3.7  T
   4    -28.1931383 -0.600638E-06  0.800E-04    2.31      30.3  T
   5    -28.1931383 -0.287273E-08  0.334E-04    2.31      72.7  T
     SCC iter.                  ...        0 min,  1.194 sec
     gradient                   ...        0 min,  0.336 sec
 * total energy  :   -27.8729891 Eh     change       -0.2635608E-05 Eh
   gradient norm :     0.0002526 Eh/α   predicted    -0.1593740E-05 ( -39.53%)
   displ. norm   :     0.0149645 α      lambda       -0.2900026E-06
   maximum displ.:     0.0100189 α      in ANC's #3, #4, #2, ...

........................................................................
.............................. CYCLE   53 ..............................
........................................................................

 iter      E             dE          RMSdq      gap      omega  full diag
   1    -28.1931128 -0.281931E+02  0.415E-03    2.31       0.0  T
   2    -28.1931128  0.433439E-08  0.252E-03    2.31       9.6  T
   3    -28.1931127  0.506033E-07  0.235E-03    2.31      10.3  T
   4    -28.1931128 -0.674069E-07  0.341E-04    2.31      71.2  T
   5    -28.1931128 -0.322430E-09  0.187E-04    2.31     130.0  T
     SCC iter.                  ...        0 min,  0.990 sec
     gradient                   ...        0 min,  0.372 sec
 * total energy  :   -27.8729895 Eh     change       -0.3855113E-06 Eh
   gradient norm :     0.0002317 Eh/α   predicted    -0.1453516E-06 ( -62.30%)
   displ. norm   :     0.0525929 α      lambda       -0.1431873E-05
   maximum displ.:     0.0390659 α      in ANC's #3, #4, #5, ...

   *** GEOMETRY OPTIMIZATION CONVERGED AFTER 53 ITERATIONS ***

------------------------------------------------------------------------
 total energy gain   :        -0.0249880 Eh      -15.6802 kcal/mol
 total RMSD          :         0.9672246 a0        0.5118 Å
 total power (kW/mol):        -1.2378483 (step)   -0.4825 (real)
------------------------------------------------------------------------

 ANCopt (total)                0 d,  0 h,  2 min, 15.959 sec
 optimizer setup                ...        0 min,  0.000 sec (  0.000%)
 model hessian                  ...        0 min,  0.007 sec (  0.005%)
 ANC generation                 ...        0 min,  0.001 sec (  0.001%)
 coordinate transformation      ...        0 min,  0.001 sec (  0.000%)
 single point calculation       ...        2 min, 13.484 sec ( 98.179%)
 optimization log               ...        0 min,  0.113 sec (  0.083%)
 hessian update                 ...        0 min,  2.322 sec (  1.708%)
 rational function              ...        0 min,  0.016 sec (  0.012%)

================
 final structure:
================
17
 xtb: 6.7.1 (edcfbbe)
C           -2.86078191207470       -0.38631207653286       -0.43794440070155
C           -1.41478328160503       -0.16792584899248       -0.18836766348676
C           -0.48090035578148       -1.11849089472735       -0.02032683535632
C            0.90180967375671       -0.81447653723567        0.07352339211807
N            1.36984346514140        0.36282116955319       -0.28505013575974
C            2.80606740191735        0.57151686402601       -0.35831055496158
N            0.66428247028039        1.39871553720087       -0.62247718614869
S           -0.88853037256047        1.56959000670279        0.00981713244567
O           -0.74243124762489        1.69830142214317        1.46405081103418
H           -3.44859707143159        0.09924707429868        0.34100092993962
H           -3.10523234148109       -1.44699397929456       -0.45977702587540
H           -3.14485322422122        0.06150222290130       -1.39072876358082
H           -0.75375425567626       -2.16599958419836        0.01920508338439
H            1.61731777158895       -1.57507393145012        0.33603740417721
H            3.19321750091138        0.79105276711710        0.63780519023936
H            3.30487681643916       -0.30954563157584       -0.75798361950045
H            2.98244896242145        1.43207142006436       -1.00055575796761

 Bond Distances (Angstroems)
 ---------------------------
C1-C2=1.4835         C1-H10=1.0900        C1-H11=1.0887        C1-H12=1.0904        C2-C1=1.4835         C2-C3=1.3431         
C2-S8=1.8262         C3-C2=1.3431         C3-C4=1.4188         C3-H13=1.0832        C4-C3=1.4188         C4-N5=1.3167         
C4-H14=1.0767        N5-C4=1.3167         N5-C6=1.4532         N5-N7=1.2980         C6-N5=1.4532         C6-H15=1.0910        
C6-H16=1.0885        C6-H17=1.0882        N7-N5=1.2980         N7-S8=1.6853         S8-C2=1.8262         S8-N7=1.6853         
S8-O9=1.4672         O9-S8=1.4672         H10-C1=1.0900        H11-C1=1.0887        H12-C1=1.0904        H13-C3=1.0832        
H14-C4=1.0767        H15-C6=1.0910        H16-C6=1.0885        H17-C6=1.0882        
 C  H  Rav=1.0871 sigma=0.0045  Rmin=1.0767  Rmax=1.0910     8
 C  C  Rav=1.4152 sigma=0.0574  Rmin=1.3431  Rmax=1.4835     3
 N  C  Rav=1.3849 sigma=0.0682  Rmin=1.3167  Rmax=1.4532     2
 N  N  Rav=1.2980 sigma=0.0000  Rmin=1.2980  Rmax=1.2980     1
 S  C  Rav=1.8262 sigma=0.0000  Rmin=1.8262  Rmax=1.8262     1
 S  N  Rav=1.6853 sigma=0.0000  Rmin=1.6853  Rmax=1.6853     1
 S  O  Rav=1.4672 sigma=0.0000  Rmin=1.4672  Rmax=1.4672     1

 selected bond angles (degree)
 --------------------
H10-C1-C2=109.87               H11-C1-C2=111.45               H11-C1-H10=109.10              H12-C1-C2=109.91               
H12-C1-H10=107.52              H12-C1-H11=108.91              C3-C2-C1=126.48                S8-C2-C1=116.05                
S8-C2-C3=117.35                C4-C3-C2=122.29                H13-C3-C2=120.92               H13-C3-C4=116.76               
N5-C4-C3=121.33                H14-C4-C3=120.82               H14-C4-N5=117.50               C6-N5-C4=119.57                
N7-N5-C4=126.24                N7-N5-C6=114.18                H15-C6-N5=109.49               H16-C6-N5=110.80               
H16-C6-H15=109.60              H17-C6-N5=107.67               H17-C6-H15=108.80              H17-C6-H16=110.43              
S8-N7-N5=118.96                N7-S8-C2= 97.37                O9-S8-C2=102.69                O9-S8-N7=106.80                

 selected dihedral angles (degree)
 ---------------------------------
C3-C2-C1-H10=121.83           C3-C2-C1-H11=  0.78           C3-C2-C1-H12=239.94           S8-C2-C1-H10=305.88           
S8-C2-C1-H11=184.83           S8-C2-C1-H12= 64.00           C4-C3-C2-C1=173.20            C4-C3-C2-S8=349.10            
H13-C3-C2-C1=355.12           H13-C3-C2-S8=171.01           N5-C4-C3-C2=345.02            N5-C4-C3-H13=163.17           
H14-C4-C3-C2=171.93           H14-C4-C3-H13=350.09          C6-N5-C4-C3=188.88            C6-N5-C4-H14=  2.19           
N7-N5-C4-C3=  7.31            N7-N5-C4-H14=180.62           H15-C6-N5-C4=277.51           H15-C6-N5-N7= 98.90           
H16-C6-N5-C4= 38.52           H16-C6-N5-N7=219.91           H17-C6-N5-C4=159.38           H17-C6-N5-N7=340.77           
S8-N7-N5-C4= 27.61            S8-N7-N5-C6=206.12            N7-S8-C2-C1=211.01            N7-S8-C2-C3= 34.68            
O9-S8-C2-C1=101.87            O9-S8-C2-C3=285.54            C2-S8-N7-N5=317.19            O9-S8-N7-N5= 62.89            
           -------------------------------------------------
          |                Final Singlepoint                |
           -------------------------------------------------

          ...................................................
          :                      SETUP                      :
          :.................................................:
          :  # basis functions                  50          :
          :  # atomic orbitals                  49          :
          :  # shells                           27          :
          :  # electrons                        50          :
          :  max. iterations                   250          :
          :  Hamiltonian                  GFN2-xTB          :
          :  restarted?                      false          :
          :  GBSA solvation                  false          :
          :  PC potential                    false          :
          :  electronic temp.          300.0000000     K    :
          :  accuracy                    1.0000000          :
          :  -> integral cutoff          0.2500000E+02      :
          :  -> integral neglect         0.1000000E-07      :
          :  -> SCF convergence          0.1000000E-05 Eh   :
          :  -> wf. convergence          0.1000000E-03 e    :
          :  Broyden damping             0.4000000          :
          :  net charge                          0          :
          :  unpaired electrons                  0          :
          ...................................................

 iter      E             dE          RMSdq      gap      omega  full diag
   1    -28.1931128 -0.281931E+02  0.780E-05    2.31       0.0  T
   2    -28.1931128 -0.519407E-11  0.508E-05    2.31     477.1  T
   3    -28.1931128 -0.190532E-10  0.333E-05    2.31     727.5  T

   *** convergence criteria satisfied after 3 iterations ***

         #    Occupation            Energy/Eh            Energy/eV
      -------------------------------------------------------------
         1        2.0000           -0.7348748             -19.9970
       ...           ...                  ...                  ...
        19        2.0000           -0.4658595             -12.6767
        20        2.0000           -0.4582661             -12.4701
        21        2.0000           -0.4358419             -11.8599
        22        2.0000           -0.4176140             -11.3639
        23        2.0000           -0.3771247             -10.2621
        24        2.0000           -0.3683156             -10.0224
        25        2.0000           -0.3610298              -9.8241 (HOMO)
        26                         -0.2760620              -7.5120 (LUMO)
        27                         -0.1841756              -5.0117
        28                         -0.1779978              -4.8436
        29                         -0.1184051              -3.2220
        30                         -0.0394570              -1.0737
       ...                                ...                  ...
        49                          0.9459013              25.7393
      -------------------------------------------------------------
                  HL-Gap            0.0849678 Eh            2.3121 eV
             Fermi-level           -0.3185459 Eh           -8.6681 eV

 SCC (total)                   0 d,  0 h,  0 min,  1.541 sec
 SCC setup                      ...        0 min,  0.043 sec (  2.778%)
 Dispersion                     ...        0 min,  0.112 sec (  7.253%)
 classical contributions        ...        0 min,  0.040 sec (  2.610%)
 integral evaluation            ...        0 min,  0.090 sec (  5.828%)
 iterations                     ...        0 min,  0.881 sec ( 57.209%)
 molecular gradient             ...        0 min,  0.361 sec ( 23.421%)
 printout                       ...        0 min,  0.000 sec (  0.009%)

         :::::::::::::::::::::::::::::::::::::::::::::::::::::
         ::                     SUMMARY                     ::
         :::::::::::::::::::::::::::::::::::::::::::::::::::::
         :: total energy             -27.872989509188 Eh    ::
         :: gradient norm              0.000231908789 Eh/a0 ::
         :: HOMO-LUMO gap              2.312091956556 eV    ::
         ::.................................................::
         :: SCC energy               -28.193090530791 Eh    ::
         :: -> isotropic ES            0.055310665965 Eh    ::
         :: -> anisotropic ES         -0.000031533866 Eh    ::
         :: -> anisotropic XC          0.015806411296 Eh    ::
         :: -> dispersion             -0.015159319121 Eh    ::
         :: repulsion energy           0.320101021603 Eh    ::
         :: add. restraining           0.000000000000 Eh    ::
         :: total charge              -0.000000000000 e     ::
         :::::::::::::::::::::::::::::::::::::::::::::::::::::

           -------------------------------------------------
          |                Property Printout                |
           -------------------------------------------------

    * Orbital Energies and Occupations

         #    Occupation            Energy/Eh            Energy/eV
      -------------------------------------------------------------
         1        2.0000           -0.7348748             -19.9970
       ...           ...                  ...                  ...
        13        2.0000           -0.5088741             -13.8472
        14        2.0000           -0.5058429             -13.7647
        15        2.0000           -0.5031634             -13.6918
        16        2.0000           -0.4913916             -13.3714
        17        2.0000           -0.4863245             -13.2336
        18        2.0000           -0.4723436             -12.8531
        19        2.0000           -0.4658595             -12.6767
        20        2.0000           -0.4582661             -12.4701
        21        2.0000           -0.4358419             -11.8599
        22        2.0000           -0.4176140             -11.3639
        23        2.0000           -0.3771247             -10.2621
        24        2.0000           -0.3683156             -10.0224
        25        2.0000           -0.3610298              -9.8241 (HOMO)
        26                         -0.2760620              -7.5120 (LUMO)
        27                         -0.1841756              -5.0117
        28                         -0.1779978              -4.8436
        29                         -0.1184051              -3.2220
        30                         -0.0394570              -1.0737
        31                         -0.0002348              -0.0064
        32                          0.0543504               1.4790
        33                          0.0843265               2.2946
        34                          0.1176717               3.2020
        35                          0.1313732               3.5748
        36                          0.1447909               3.9400
       ...                                ...                  ...
        49                          0.9459013              25.7393
      -------------------------------------------------------------
                  HL-Gap            0.0849678 Eh            2.3121 eV
             Fermi-level           -0.3185459 Eh           -8.6681 eV

     #   Z          covCN         q      C6AA      α(0)
     1   6 C        3.774    -0.112    22.665     6.783
     2   6 C        2.940    -0.032    28.795     8.801
     3   6 C        2.948    -0.040    28.996     8.832
     4   6 C        2.865    -0.031    28.760     8.791
     5   7 N        2.903     0.176    18.305     6.354
     6   6 C        3.720    -0.076    22.072     6.710
     7   7 N        1.931    -0.339    29.652     8.074
     8  16 S        2.913     0.475   123.183    18.680
     9   8 O        0.860    -0.518    24.194     6.595
    10   1 H        0.925     0.062     2.171     2.304
    11   1 H        0.925     0.049     2.329     2.387
    12   1 H        0.924     0.056     2.246     2.344
    13   1 H        0.925     0.041     2.441     2.443
    14   1 H        0.926     0.043     2.404     2.425
    15   1 H        0.924     0.082     1.960     2.189
    16   1 H        0.925     0.069     2.102     2.267
    17   1 H        0.925     0.095     1.828     2.114

 Mol. C6AA /au·bohr⁶  :       3963.867109
 Mol. C8AA /au·bohr⁸  :     104439.275075
 Mol. α(0) /au        :         98.093363


Wiberg/Mayer (AO) data.
largest (>0.10) Wiberg bond orders for each atom

 ---------------------------------------------------------------------------
     #   Z sym  total        # sym  WBO       # sym  WBO       # sym  WBO
 ---------------------------------------------------------------------------
     1   6 C    3.995 --     2 C    1.044    11 H    0.980    10 H    0.965
                            12 H    0.963
     2   6 C    3.979 --     3 C    1.694     1 C    1.044     8 S    0.933
                             7 N    0.130
     3   6 C    3.990 --     2 C    1.694     4 C    1.223    13 H    0.953
     4   6 C    3.956 --     5 N    1.400     3 C    1.223    14 H    0.965
                             7 N    0.257
     5   7 N    3.777 --     4 C    1.400     7 N    1.281     6 C    0.977
     6   6 C    3.959 --    16 H    0.978     5 N    0.977    17 H    0.975
                            15 H    0.966
     7   7 N    2.958 --     5 N    1.281     8 S    1.124     4 C    0.257
                             2 C    0.130
     8  16 S    3.962 --     9 O    1.784     7 N    1.124     2 C    0.933
     9   8 O    2.013 --     8 S    1.784
    10   1 H    0.996 --     1 C    0.965
    11   1 H    0.998 --     1 C    0.980
    12   1 H    0.996 --     1 C    0.963
    13   1 H    0.998 --     3 C    0.953
    14   1 H    0.998 --     4 C    0.965
    15   1 H    0.993 --     6 C    0.966
    16   1 H    0.995 --     6 C    0.978
    17   1 H    0.991 --     6 C    0.975
 ---------------------------------------------------------------------------

Topologies differ in total number of bonds
Writing topology from bond orders to xtbtopo.mol

molecular dipole:
                 x           y           z       tot (Debye)
 q only:        0.734      -0.961      -1.269
   full:        0.811      -1.484      -1.036       5.042
molecular quadrupole (traceless):
                xx          xy          yy          xz          yz          zz
 q only:       13.178       1.070      -5.147       2.850      -5.792      -8.031
  q+dip:       13.934       0.794      -5.645       3.644      -5.011      -8.288
   full:       14.014       1.203      -6.348       3.353      -4.546      -7.667

           -------------------------------------------------
          |                Geometry Summary                 |
           -------------------------------------------------

      molecular mass/u    :      144.1948042
   center of mass at/Å    :       -0.1652027       0.5272480      -0.0170111
  moments of inertia/u·Å² :        0.2033888E+03   0.4005297E+03   0.5206960E+03
rotational constants/cm⁻¹ :        0.8288379E-01   0.4208834E-01   0.3237519E-01

 * 16 selected distances

     #   Z          #   Z                                           value/Å
     1   6 C        2   6 C                                       1.4835409
     2   6 C        3   6 C                                       1.3431118
     3   6 C        4   6 C                                       1.4188446
     4   6 C        5   7 N                                       1.3166855
     5   7 N        6   6 C                                       1.4531554
     5   7 N        7   7 N                                       1.2979795
     7   7 N        8  16 S                                       1.6852960 (max)
     8  16 S        9   8 O                                       1.4672108
     1   6 C       10   1 H                                       1.0899772
     1   6 C       11   1 H                                       1.0887052
     1   6 C       12   1 H                                       1.0904276
     3   6 C       13   1 H                                       1.0831836
     4   6 C       14   1 H                                       1.0767423 (min)
     6   6 C       15   1 H                                       1.0910215
     6   6 C       16   1 H                                       1.0884947
     6   6 C       17   1 H                                       1.0881837

 * 6 distinct bonds (by element types)

   Z      Z             #   av. dist./Å        max./Å        min./Å
   1 H    6 C           8     1.0870920     1.0910215     1.0767423
   6 C    6 C           3     1.4151658     1.4835409     1.3431118
   6 C    7 N           2     1.3849205     1.4531554     1.3166855
   7 N    7 N           1     1.2979795     1.2979795     1.2979795
   7 N   16 S           1     1.6852960     1.6852960     1.6852960
   8 O   16 S           1     1.4672108     1.4672108     1.4672108


optimized geometry written to: xtbopt.xyz


           -------------------------------------------------
          | TOTAL ENERGY              -27.872989509188 Eh   |
          | GRADIENT NORM               0.000231908789 Eh/α |
          | HOMO-LUMO GAP               2.312091956556 eV   |
Note: The following floating-point exceptions are signalling: IEEE_UNDERFLOW_FLAG IEEE_DENORMAL
normal termination of xtb
           -------------------------------------------------

------------------------------------------------------------------------
 * finished run on 2026/08/20 at 02:24:25.752     
------------------------------------------------------------------------
 total:
 * wall-time:     0 d,  0 h,  2 min, 23.173 sec
 *  cpu-time:     0 d,  0 h,  7 min, 22.410 sec
 * ratio c/w:     3.090 speedup
 SCF:
 * wall-time:     0 d,  0 h,  0 min,  5.103 sec
 *  cpu-time:     0 d,  0 h,  0 min, 13.156 sec
 * ratio c/w:     2.578 speedup
 ANC optimizer:
 * wall-time:     0 d,  0 h,  2 min, 17.509 sec
 *  cpu-time:     0 d,  0 h,  7 min,  8.025 sec
 * ratio c/w:     3.113 speedup

