17
 energy: -27.819014591331 gnorm: 0.000727466016 xtb: 6.7.1 (edcfbbe)
C           -2.49870386190212       -0.21585348164241       -1.16367425305604
C           -1.24396243765457       -0.26198897519148       -0.42000003287398
C           -0.49887209756937       -1.10352391140734        0.35442917876793
C            0.78412712733395       -0.62079944461706        0.57316081014803
N            1.08782282347939        0.41968244101137       -0.23818580096631
C            2.37748657747800        1.06405594928451       -0.24659770737718
N            0.08588210581998        1.01204645649943       -0.84047705343359
S           -0.96992984979384        1.78150358987734        0.87297138090710
O           -0.02820188971904        1.20514973313299        1.86678215162070
H           -3.33014302728960       -0.48927362236462       -0.51225571982289
H           -2.46569087495131       -0.91272885880633       -2.00460210487326
H           -2.66707017004515        0.78573625205133       -1.55003616108334
H           -0.88498536799896       -1.99050541533131        0.82309612693087
H            1.54855248112900       -1.06250149052480        1.18431733056022
H            3.16381915540146        0.31280734740355       -0.31307253475340
H            2.42100436880839        1.72437832443281       -1.11110735106139
H            2.51217474747651        1.65394475619560        0.66258525036631
