      -----------------------------------------------------------      
     |                   =====================                   |     
     |                           x T B                           |     
     |                   =====================                   |     
     |                         S. Grimme                         |     
     |          Mulliken Center for Theoretical Chemistry        |     
     |                    University of Bonn                     |     
      -----------------------------------------------------------      

   * xtb version 6.7.1 (edcfbbe) compiled by 'conda@3ef47c1a292c' on 2024-11-25

   xtb is free software: you can redistribute it and/or modify it under
   the terms of the GNU Lesser General Public License as published by
   the Free Software Foundation, either version 3 of the License, or
   (at your option) any later version.
   
   xtb is distributed in the hope that it will be useful,
   but WITHOUT ANY WARRANTY; without even the implied warranty of
   MERCHANTABILITY or FITNESS FOR A PARTICULAR PURPOSE.  See the
   GNU Lesser General Public License for more details.
   
   Cite this work as:
   * C. Bannwarth, E. Caldeweyher, S. Ehlert, A. Hansen, P. Pracht,
     J. Seibert, S. Spicher, S. Grimme, WIREs Comput. Mol. Sci., 2020, 11,
     e01493. DOI: 10.1002/wcms.1493
   
   for GFN2-xTB:
   * C. Bannwarth, S. Ehlert and S. Grimme., J. Chem. Theory Comput., 2019,
     15, 1652-1671. DOI: 10.1021/acs.jctc.8b01176
   for GFN1-xTB:
   * S. Grimme, C. Bannwarth, P. Shushkov, J. Chem. Theory Comput., 2017,
     13, 1989-2009. DOI: 10.1021/acs.jctc.7b00118
   for GFN0-xTB:
   * P. Pracht, E. Caldeweyher, S. Ehlert, S. Grimme, ChemRxiv, 2019, preprint.
     DOI: 10.26434/chemrxiv.8326202.v1
   for GFN-FF:
   * S. Spicher and S. Grimme, Angew. Chem. Int. Ed., 2020, 59, 15665-15673.
     DOI: 10.1002/anie.202004239
   
   for ALPB and GBSA implicit solvation:
   * S. Ehlert, M. Stahn, S. Spicher, S. Grimme, J. Chem. Theory Comput.,
     2021, 17, 4250-4261. DOI: 10.1021/acs.jctc.1c00471
   
   for ddCOSMO and CPCM-X implicit solvation:
   * M. Stahn, S. Ehlert, S. Grimme, J. Phys. Chem. A,
     2023, XX, XXXX-XXXX. DOI: 10.1021/acs.jpca.3c04382
   
   for DFT-D4:
   * E. Caldeweyher, C. Bannwarth and S. Grimme, J. Chem. Phys., 2017,
     147, 034112. DOI: 10.1063/1.4993215
   * E. Caldeweyher, S. Ehlert, A. Hansen, H. Neugebauer, S. Spicher,
     C. Bannwarth and S. Grimme, J. Chem. Phys., 2019, 150, 154122.
     DOI: 10.1063/1.5090222
   * E. Caldeweyher, J.-M. Mewes, S. Ehlert and S. Grimme, Phys. Chem. Chem. Phys.
     2020, 22, 8499-8512. DOI: 10.1039/D0CP00502A
   
   for sTDA-xTB:
   * S. Grimme and C. Bannwarth, J. Chem. Phys., 2016, 145, 054103.
     DOI: 10.1063/1.4959605
   
   in the mass-spec context:
   * V. Asgeirsson, C. Bauer and S. Grimme, Chem. Sci., 2017, 8, 4879.
     DOI: 10.1039/c7sc00601b
   * J. Koopman and S. Grimme, ACS Omega 2019, 4, 12, 15120-15133.
     DOI: 10.1021/acsomega.9b02011
   
   for metadynamics refer to:
   * S. Grimme, J. Chem. Theory Comput., 2019, 155, 2847-2862
     DOI: 10.1021/acs.jctc.9b00143
   
   for SPH calculations refer to:
   * S. Spicher and S. Grimme, J. Chem. Theory Comput., 2021, 17, 1701-1714
     DOI: 10.1021/acs.jctc.0c01306
   
   for ONIOM refer to:
   * C. Plett, A. Katbashev, S. Ehlert, S. Grimme, M. Bursch,
     Phys. Chem. Chem. Phys., 2023, 25, 17860-17868. DOI: 10.1039/D3CP02178E
   
   for DIPRO refer to:
   * J. Kohn, N. Gildemeister, S. Grimme, D. Fazzi, A. Hansen,
     J. Chem. Phys., 2023, just accepted.
   
   for PTB refer to:
   * S. Grimme, M. Mueller, A. Hansen, J. Chem. Phys., 2023, 158, 124111.
     DOI: 10.1063/5.0137838
   
   with help from (in alphabetical order)
   P. Atkinson, C. Bannwarth, F. Bohle, G. Brandenburg, E. Caldeweyher
   M. Checinski, S. Dohm, S. Ehlert, S. Ehrlich, I. Gerasimov, C. Hölzer
   A. Katbashev, J. Kohn, J. Koopman, C. Lavigne, S. Lehtola, F. März, M. Müller,
   F. Musil, H. Neugebauer, J. Pisarek, C. Plett, P. Pracht, F. Pultar,
   J. Seibert, P. Shushkov, S. Spicher, M. Stahn, M. Steiner, T. Strunk,
   J. Stückrath, T. Rose, and J. Unsleber
   
 * started run on 2026/08/20 at 02:32:31.746     
   ID    Z sym.   atoms
    1    6 C      1-4, 6
    2    7 N      5, 7
    3   16 S      8
    4    8 O      9
    5    1 H      10-17
constraining bond 7 2 to    1.9100000 Å, actual value:    1.9125547 Å
constraining bond 8 7 to    2.1600000 Å, actual value:    2.1556268 Å
constraining bond 8 2 to    2.4400000 Å, actual value:    2.4420150 Å

           -------------------------------------------------
          |                Calculation Setup                |
           -------------------------------------------------

          program call               : /h/399/yunhengzou/micromamba/envs/el-agente/bin/xtb pathway_B_TS_Initial_Guess.xyz --opt --gfn 2 -P 4 --chrg 0 --uhf 0 --input detailed_input.inp
          coordinate file            : pathway_B_TS_Initial_Guess.xyz
          omp threads                :                     4


molecular fragmentation (1/2 indicates fragments):
11111112211111111
# atoms in fragment 1/2:    15     2
 fragment masses (1/2) :       96.13       48.06
CMA distance (Bohr)    :   5.466
constraining FC (au)   :  1.0000

           -------------------------------------------------
          |                 G F N 2 - x T B                 |
           -------------------------------------------------

        Reference                      10.1021/acs.jctc.8b01176
      * Hamiltonian:
        H0-scaling (s, p, d)           1.850000    2.230000    2.230000
        zeta-weighting                 0.500000
      * Dispersion:
        s8                             2.700000
        a1                             0.520000
        a2                             5.000000
        s9                             5.000000
      * Repulsion:
        kExp                           1.500000    1.000000
        rExp                           1.000000
      * Coulomb:
        alpha                          2.000000
        third order                    shell-resolved
        anisotropic                    true
        a3                             3.000000
        a5                             4.000000
        cn-shift                       1.200000
        cn-exp                         4.000000
        max-rad                        5.000000


          ...................................................
          :                      SETUP                      :
          :.................................................:
          :  # basis functions                  50          :
          :  # atomic orbitals                  49          :
          :  # shells                           27          :
          :  # electrons                        50          :
          :  max. iterations                   250          :
          :  Hamiltonian                  GFN2-xTB          :
          :  restarted?                      false          :
          :  GBSA solvation                  false          :
          :  PC potential                    false          :
          :  electronic temp.          300.0000000     K    :
          :  accuracy                    1.0000000          :
          :  -> integral cutoff          0.2500000E+02      :
          :  -> integral neglect         0.1000000E-07      :
          :  -> SCF convergence          0.1000000E-05 Eh   :
          :  -> wf. convergence          0.1000000E-03 e    :
          :  Broyden damping             0.4000000          :
          :  net charge                          0          :
          :  unpaired electrons                  0          :
          ...................................................

 iter      E             dE          RMSdq      gap      omega  full diag
   1    -27.9002311 -0.279002E+02  0.548E+00    1.18       0.0  T
   2    -27.9660305 -0.657994E-01  0.334E+00    0.65       1.0  T
   3    -27.9580324  0.799812E-02  0.219E+00    0.75       1.0  T
   4    -27.9786430 -0.206106E-01  0.146E+00    0.68       1.0  T
   5    -28.0005417 -0.218986E-01  0.579E-01    0.60       1.0  T
   6    -28.0027026 -0.216096E-02  0.295E-01    0.66       1.0  T
   7    -28.0027534 -0.507616E-04  0.150E-01    0.65       1.0  T
   8    -28.0029576 -0.204206E-03  0.534E-02    0.66       1.0  T
   9    -28.0029593 -0.174303E-05  0.294E-02    0.65       1.0  T
  10    -28.0029673 -0.800590E-05  0.838E-03    0.65       2.9  T
  11    -28.0029676 -0.275187E-06  0.394E-03    0.65       6.2  T
  12    -28.0029677 -0.439788E-07  0.169E-03    0.65      14.4  T
  13    -28.0029677 -0.462638E-08  0.524E-04    0.65      46.2  T
  14    -28.0029677 -0.812634E-09  0.301E-04    0.65      80.5  T

   *** convergence criteria satisfied after 14 iterations ***

         #    Occupation            Energy/Eh            Energy/eV
      -------------------------------------------------------------
         1        2.0000           -0.6974054             -18.9774
       ...           ...                  ...                  ...
        19        2.0000           -0.4516305             -12.2895
        20        2.0000           -0.4462387             -12.1428
        21        2.0000           -0.4247064             -11.5568
        22        2.0000           -0.4138277             -11.2608
        23        2.0000           -0.3996504             -10.8750
        24        2.0000           -0.3608741              -9.8199
        25        2.0000           -0.2903034              -7.8996 (HOMO)
        26        0.0000           -0.2662812              -7.2459 (LUMO)
        27                         -0.2342500              -6.3743
        28                         -0.2244698              -6.1081
        29                         -0.1563760              -4.2552
        30                         -0.1066504              -2.9021
       ...                                ...                  ...
        49                         11.8808184             323.2935
      -------------------------------------------------------------
                  HL-Gap            0.0240222 Eh            0.6537 eV
             Fermi-level           -0.2782923 Eh           -7.5727 eV

 SCC (total)                   0 d,  0 h,  0 min,  8.016 sec
 SCC setup                      ...        0 min,  0.010 sec (  0.123%)
 Dispersion                     ...        0 min,  0.046 sec (  0.574%)
 classical contributions        ...        0 min,  0.009 sec (  0.106%)
 integral evaluation            ...        0 min,  0.144 sec (  1.792%)
 iterations                     ...        0 min,  7.362 sec ( 91.835%)
 molecular gradient             ...        0 min,  0.446 sec (  5.568%)
 printout                       ...        0 min,  0.000 sec (  0.002%)

         :::::::::::::::::::::::::::::::::::::::::::::::::::::
         ::                     SUMMARY                     ::
         :::::::::::::::::::::::::::::::::::::::::::::::::::::
         :: total energy             -23.979334241876 Eh    ::
         :: gradient norm             12.263368819773 Eh/a0 ::
         :: HOMO-LUMO gap              0.653678132841 eV    ::
         ::.................................................::
         :: SCC energy               -28.002913037576 Eh    ::
         :: -> isotropic ES            0.026222778845 Eh    ::
         :: -> anisotropic ES          0.000236608831 Eh    ::
         :: -> anisotropic XC          0.019219185900 Eh    ::
         :: -> dispersion             -0.014460302193 Eh    ::
         :: repulsion energy           4.023472693114 Eh    ::
         :: add. restraining           0.000106102586 Eh    ::
         :: total charge              -0.000000000000 e     ::
         :::::::::::::::::::::::::::::::::::::::::::::::::::::

      ----------------------------------------------------------- 
     |                   =====================                   |
     |                        A N C O P T                        |
     |                   =====================                   |
     |               Approximate Normal Coordinate               |
     |                Rational Function Optimizer                |
      ----------------------------------------------------------- 
      ----------------------------------------------------------- 
     |                   =====================                   |
     |                        A N C O P T                        |
     |                   =====================                   |
     |               Approximate Normal Coordinate               |
     |                Rational Function Optimizer                |
      ----------------------------------------------------------- 

          ...................................................
          :                      SETUP                      :
          :.................................................:
          :   optimization level            normal          :
          :   max. optcycles                   200          :
          :   ANC micro-cycles                  20          :
          :   degrees of freedom                45          :
          :.................................................:
          :   RF solver                   davidson          :
          :   write xtbopt.log                true          :
          :   linear?                        false          :
          :   energy convergence         0.5000000E-05 Eh   :
          :   grad. convergence          0.1000000E-02 Eh/α :
          :   maxmium RF displ.          1.0000000          :
          :   Hlow (freq-cutoff)         0.1000000E-01      :
          :   Hmax (freq-cutoff)         5.0000000          :
          :   S6 in model hess.         20.0000000          :
          ...................................................

generating ANC from exact Hessian ...
Using Lindh-Hessian (1995)
 Shifting diagonal of input Hessian by    8.8656862788339674E-003
 Lowest  eigenvalues of input Hessian
    0.000000    0.000000    0.000000    0.000000    0.000000    0.000000
    0.010000    0.012382    0.014358    0.017960    0.021118    0.024650
    0.036678    0.047793    0.059364    0.060115    0.082770    0.101245
 Highest eigenvalues
    5.677347    6.619566    6.917355    9.710821   14.481463   26.256428


........................................................................
.............................. CYCLE    1 ..............................
........................................................................

 iter      E             dE          RMSdq      gap      omega  full diag
   1    -28.0029677 -0.280030E+02  0.111E-04    0.65       0.0  T
   2    -28.0029677 -0.164775E-10  0.710E-05    0.65     341.6  T
   3    -28.0029677 -0.309051E-10  0.405E-05    0.65     599.5  T
     SCC iter.                  ...        0 min,  1.218 sec
     gradient                   ...        0 min,  0.193 sec
 * total energy  :   -23.9793342 Eh     change       -0.1948202E-09 Eh
   gradient norm :    12.2633690 Eh/α   predicted     0.0000000E+00 (-100.00%)
   displ. norm   :     0.8384170 α      lambda       -0.1026690E+02
   maximum displ.:     0.5385428 α      in ANC's #38, #44, #40, ...

........................................................................
.............................. CYCLE    2 ..............................
........................................................................

 iter      E             dE          RMSdq      gap      omega  full diag
   1    -27.8763238 -0.278763E+02  0.223E+00    0.78       0.0  T
   2    -27.9110941 -0.347703E-01  0.137E+00    0.63       1.0  T
   3    -27.9167664 -0.567228E-02  0.102E+00    0.64       1.0  T
   4    -27.9259972 -0.923073E-02  0.546E-01    0.67       1.0  T
   5    -27.9277248 -0.172768E-02  0.187E-01    0.64       1.0  T
   6    -27.9277886 -0.637340E-04  0.110E-01    0.66       1.0  T
   7    -27.9278738 -0.852135E-04  0.276E-02    0.65       1.0  T
   8    -27.9278752 -0.146091E-05  0.108E-02    0.65       2.2  T
   9    -27.9278753 -0.985079E-07  0.517E-03    0.65       4.7  T
  10    -27.9278755 -0.179245E-06  0.171E-03    0.65      14.1  T
  11    -27.9278755 -0.540339E-08  0.870E-04    0.65      27.9  T
  12    -27.9278755 -0.517409E-08  0.389E-04    0.65      62.4  T
     SCC iter.                  ...        0 min, 12.305 sec
     gradient                   ...        0 min,  0.563 sec
 * total energy  :   -27.2502089 Eh     change       -0.3270875E+01 Eh
   gradient norm :     0.8308536 Eh/α   predicted    -0.8741969E+01 ( 167.27%)
   displ. norm   :     0.4710712 α      lambda       -0.2520341E+00
   maximum displ.:     0.2137529 α      in ANC's #25, #15, #16, ...

........................................................................
.............................. CYCLE    3 ..............................
........................................................................

 iter      E             dE          RMSdq      gap      omega  full diag
   1    -27.9332786 -0.279333E+02  0.834E-01    0.68       0.0  T
   2    -27.9356158 -0.233712E-02  0.496E-01    0.66       1.0  T
   3    -27.9352718  0.343959E-03  0.382E-01    0.70       1.0  T
   4    -27.9364664 -0.119461E-02  0.220E-01    0.67       1.0  T
   5    -27.9367649 -0.298529E-03  0.461E-02    0.68       1.0  T
   6    -27.9367754 -0.104087E-04  0.180E-02    0.68       1.3  T
   7    -27.9367764 -0.105193E-05  0.784E-03    0.68       3.1  T
   8    -27.9367766 -0.220515E-06  0.401E-03    0.68       6.1  T
   9    -27.9367767 -0.119497E-06  0.178E-03    0.68      13.6  T
  10    -27.9367768 -0.107105E-07  0.783E-04    0.68      31.0  T
  11    -27.9367768 -0.238030E-08  0.410E-04    0.68      59.2  T
     SCC iter.                  ...        0 min, 10.291 sec
     gradient                   ...        0 min,  0.434 sec
 * total energy  :   -27.4178481 Eh     change       -0.1676392E+00 Eh
   gradient norm :     0.5471649 Eh/α   predicted    -0.1539812E+00 (  -8.15%)
   displ. norm   :     0.3420833 α      lambda       -0.1096176E+00
   maximum displ.:     0.1641239 α      in ANC's #38, #10, #1, ...

........................................................................
.............................. CYCLE    4 ..............................
........................................................................

 iter      E             dE          RMSdq      gap      omega  full diag
   1    -27.9299981 -0.279300E+02  0.588E-01    0.70       0.0  T
   2    -27.9308195 -0.821384E-03  0.310E-01    0.70       1.0  T
   3    -27.9302168  0.602723E-03  0.266E-01    0.72       1.0  T
   4    -27.9310427 -0.825957E-03  0.106E-01    0.70       1.0  T
   5    -27.9310634 -0.206987E-04  0.587E-02    0.71       1.0  T
   6    -27.9310865 -0.230627E-04  0.176E-02    0.70       1.4  T
   7    -27.9310872 -0.755743E-06  0.743E-03    0.70       3.3  T
   8    -27.9310875 -0.302710E-06  0.357E-03    0.70       6.8  T
   9    -27.9310876 -0.730960E-07  0.129E-03    0.70      18.7  T
  10    -27.9310876  0.196298E-09  0.679E-04    0.70      35.7  T
  11    -27.9310876 -0.273235E-08  0.254E-04    0.70      95.6  T
     SCC iter.                  ...        0 min,  5.164 sec
     gradient                   ...        0 min,  0.528 sec
 * total energy  :   -27.5055933 Eh     change       -0.8774515E-01 Eh
   gradient norm :     0.4071967 Eh/α   predicted    -0.6122260E-01 ( -30.23%)
   displ. norm   :     0.4365141 α      lambda       -0.1265979E+00
   maximum displ.:     0.2993267 α      in ANC's #38, #15, #43, ...

........................................................................
.............................. CYCLE    5 ..............................
........................................................................

 iter      E             dE          RMSdq      gap      omega  full diag
   1    -27.9447640 -0.279448E+02  0.984E-01    0.72       0.0  T
   2    -27.9472703 -0.250632E-02  0.489E-01    0.73       1.0  T
   3    -27.9467567  0.513640E-03  0.313E-01    0.72       1.0  T
   4    -27.9473457 -0.589050E-03  0.181E-01    0.73       1.0  T
   5    -27.9475882 -0.242497E-03  0.844E-02    0.74       1.0  T
   6    -27.9476470 -0.587545E-04  0.222E-02    0.73       1.1  T
   7    -27.9476482 -0.117784E-05  0.944E-03    0.73       2.6  T
   8    -27.9476486 -0.398221E-06  0.432E-03    0.73       5.6  T
   9    -27.9476487 -0.987592E-07  0.156E-03    0.73      15.5  T
  10    -27.9476487 -0.417985E-08  0.977E-04    0.73      24.8  T
  11    -27.9476487 -0.495696E-08  0.387E-04    0.73      62.7  T
     SCC iter.                  ...        0 min,  8.625 sec
     gradient                   ...        0 min,  0.399 sec
 * total energy  :   -27.5999345 Eh     change       -0.9434124E-01 Eh
   gradient norm :     0.2898907 Eh/α   predicted    -0.7536021E-01 ( -20.12%)
   displ. norm   :     0.4077420 α      lambda       -0.7797084E-01
   maximum displ.:     0.2925996 α      in ANC's #38, #1, #40, ...

........................................................................
.............................. CYCLE    6 ..............................
........................................................................

 iter      E             dE          RMSdq      gap      omega  full diag
   1    -27.9629633 -0.279630E+02  0.800E-01    0.73       0.0  T
   2    -27.9648419 -0.187865E-02  0.396E-01    0.77       1.0  T
   3    -27.9642153  0.626687E-03  0.373E-01    0.72       1.0  T
   4    -27.9650559 -0.840667E-03  0.188E-01    0.77       1.0  T
   5    -27.9651919 -0.135951E-03  0.768E-02    0.75       1.0  T
   6    -27.9652590 -0.671070E-04  0.346E-02    0.75       1.0  T
   7    -27.9652684 -0.940547E-05  0.122E-02    0.75       2.0  T
   8    -27.9652697 -0.126973E-05  0.294E-03    0.75       8.3  T
   9    -27.9652697 -0.492312E-07  0.915E-04    0.75      26.5  T
  10    -27.9652697 -0.504908E-08  0.516E-04    0.75      47.0  T
     SCC iter.                  ...        0 min,  7.643 sec
     gradient                   ...        0 min,  0.256 sec
 * total energy  :   -27.6576567 Eh     change       -0.5772217E-01 Eh
   gradient norm :     0.2262029 Eh/α   predicted    -0.4546690E-01 ( -21.23%)
   displ. norm   :     0.3837980 α      lambda       -0.4977958E-01
   maximum displ.:     0.2539409 α      in ANC's #38, #1, #40, ...

........................................................................
.............................. CYCLE    7 ..............................
........................................................................

 iter      E             dE          RMSdq      gap      omega  full diag
   1    -27.9800525 -0.279801E+02  0.592E-01    0.77       0.0  T
   2    -27.9809437 -0.891132E-03  0.342E-01    0.81       1.0  T
   3    -27.9805267  0.416960E-03  0.328E-01    0.76       1.0  T
   4    -27.9812917 -0.765001E-03  0.140E-01    0.80       1.0  T
   5    -27.9813913 -0.995637E-04  0.422E-02    0.79       1.0  T
   6    -27.9814059 -0.145936E-04  0.188E-02    0.79       1.3  T
   7    -27.9814083 -0.242723E-05  0.898E-03    0.79       2.7  T
   8    -27.9814091 -0.790534E-06  0.280E-03    0.79       8.7  T
   9    -27.9814091 -0.422647E-07  0.951E-04    0.79      25.5  T
  10    -27.9814091 -0.775730E-08  0.388E-04    0.79      62.5  T
     SCC iter.                  ...        0 min,  5.161 sec
     gradient                   ...        0 min,  0.279 sec
 * total energy  :   -27.6951185 Eh     change       -0.3746185E-01 Eh
   gradient norm :     0.1857840 Eh/α   predicted    -0.2855612E-01 ( -23.77%)
   displ. norm   :     0.4119045 α      lambda       -0.3772621E-01
   maximum displ.:     0.2573120 α      in ANC's #1, #38, #40, ...

........................................................................
.............................. CYCLE    8 ..............................
........................................................................

 iter      E             dE          RMSdq      gap      omega  full diag
   1    -27.9968338 -0.279968E+02  0.540E-01    0.82       0.0  T
   2    -27.9970158 -0.182018E-03  0.388E-01    0.87       1.0  T
   3    -27.9972316 -0.215849E-03  0.297E-01    0.82       1.0  T
   4    -27.9977131 -0.481503E-03  0.131E-01    0.85       1.0  T
   5    -27.9978206 -0.107456E-03  0.514E-02    0.84       1.0  T
   6    -27.9978515 -0.309246E-04  0.139E-02    0.84       1.7  T
   7    -27.9978520 -0.464638E-06  0.826E-03    0.84       2.9  T
   8    -27.9978529 -0.936377E-06  0.289E-03    0.84       8.4  T
   9    -27.9978530 -0.483315E-07  0.937E-04    0.84      25.9  T
  10    -27.9978530 -0.295192E-08  0.231E-04    0.84     105.2  T
     SCC iter.                  ...        0 min,  3.476 sec
     gradient                   ...        0 min,  0.277 sec
 * total energy  :   -27.7236898 Eh     change       -0.2857122E-01 Eh
   gradient norm :     0.1591813 Eh/α   predicted    -0.2206354E-01 ( -22.78%)
   displ. norm   :     0.4274383 α      lambda       -0.3208206E-01
   maximum displ.:     0.2301289 α      in ANC's #1, #38, #40, ...

........................................................................
.............................. CYCLE    9 ..............................
........................................................................

 iter      E             dE          RMSdq      gap      omega  full diag
   1    -28.0193497 -0.280193E+02  0.553E-01    0.89       0.0  T
   2    -28.0196420 -0.292354E-03  0.323E-01    0.89       1.0  T
   3    -28.0191716  0.470446E-03  0.210E-01    0.91       1.0  T
   4    -28.0197293 -0.557705E-03  0.769E-02    0.90       1.0  T
   5    -28.0197831 -0.538454E-04  0.364E-02    0.90       1.0  T
   6    -28.0197892 -0.607771E-05  0.180E-02    0.90       1.3  T
   7    -28.0197926 -0.345230E-05  0.506E-03    0.90       4.8  T
   8    -28.0197927 -0.907894E-07  0.228E-03    0.90      10.6  T
   9    -28.0197927 -0.782412E-08  0.119E-03    0.90      20.4  T
  10    -28.0197927 -0.791460E-08  0.637E-04    0.90      38.1  T
  11    -28.0197928 -0.248813E-08  0.217E-04    0.90     111.5  T
     SCC iter.                  ...        0 min,  6.075 sec
     gradient                   ...        0 min,  0.393 sec
 * total energy  :   -27.7454522 Eh     change       -0.2176249E-01 Eh
   gradient norm :     0.1665386 Eh/α   predicted    -0.1897181E-01 ( -12.82%)
   displ. norm   :     0.5584802 α      lambda       -0.2855069E-01
   maximum displ.:     0.3711308 α      in ANC's #1, #4, #2, ...

........................................................................
.............................. CYCLE   10 ..............................
........................................................................

 iter      E             dE          RMSdq      gap      omega  full diag
   1    -28.0374712 -0.280375E+02  0.579E-01    0.94       0.0  T
   2    -28.0368578  0.613353E-03  0.487E-01    0.99       1.0  T
   3    -28.0380233 -0.116550E-02  0.287E-01    0.94       1.0  T
   4    -28.0380697 -0.463338E-04  0.171E-01    0.97       1.0  T
   5    -28.0384062 -0.336509E-03  0.375E-02    0.96       1.0  T
   6    -28.0384149 -0.872325E-05  0.194E-02    0.96       1.3  T
   7    -28.0384193 -0.443160E-05  0.570E-03    0.96       4.3  T
   8    -28.0384196 -0.269495E-06  0.188E-03    0.96      12.9  T
   9    -28.0384196 -0.987006E-08  0.831E-04    0.96      29.2  T
  10    -28.0384196 -0.298463E-09  0.421E-04    0.96      57.5  T
     SCC iter.                  ...        0 min,  3.312 sec
     gradient                   ...        0 min,  0.262 sec
 * total energy  :   -27.7619098 Eh     change       -0.1645758E-01 Eh
   gradient norm :     0.2021875 Eh/α   predicted    -0.1872781E-01 (  13.79%)
   displ. norm   :     0.3978523 α      lambda       -0.2130852E-01
   maximum displ.:     0.2051391 α      in ANC's #1, #15, #8, ...

........................................................................
.............................. CYCLE   11 ..............................
........................................................................

 iter      E             dE          RMSdq      gap      omega  full diag
   1    -28.0625203 -0.280625E+02  0.503E-01    1.02       0.0  T
   2    -28.0620136  0.506690E-03  0.432E-01    0.97       1.0  T
   3    -28.0631316 -0.111797E-02  0.224E-01    1.02       1.0  T
   4    -28.0631658 -0.342492E-04  0.133E-01    0.99       1.0  T
   5    -28.0633776 -0.211741E-03  0.502E-02    1.00       1.0  T
   6    -28.0633950 -0.173739E-04  0.173E-02    1.00       1.4  T
   7    -28.0633957 -0.713026E-06  0.555E-03    1.00       4.4  T
   8    -28.0633961 -0.382289E-06  0.238E-03    1.00      10.2  T
   9    -28.0633961 -0.222140E-07  0.129E-03    1.00      18.8  T
  10    -28.0633961 -0.101193E-08  0.553E-04    1.00      43.8  T
  11    -28.0633961 -0.193413E-08  0.138E-04    1.00     175.8  T
     SCC iter.                  ...        0 min,  3.332 sec
     gradient                   ...        0 min,  0.301 sec
 * total energy  :   -27.7775877 Eh     change       -0.1567793E-01 Eh
   gradient norm :     0.1473149 Eh/α   predicted    -0.1234071E-01 ( -21.29%)
   displ. norm   :     0.4519931 α      lambda       -0.2102764E-01
   maximum displ.:     0.3147312 α      in ANC's #1, #38, #15, ...

........................................................................
.............................. CYCLE   12 ..............................
........................................................................

 iter      E             dE          RMSdq      gap      omega  full diag
   1    -28.0890578 -0.280891E+02  0.418E-01    1.06       0.0  T
   2    -28.0888787  0.179065E-03  0.343E-01    1.01       1.0  T
   3    -28.0894648 -0.586028E-03  0.190E-01    1.05       1.0  T
   4    -28.0895017 -0.369619E-04  0.101E-01    1.03       1.0  T
   5    -28.0896250 -0.123294E-03  0.308E-02    1.03       1.0  T
   6    -28.0896341 -0.912946E-05  0.916E-03    1.04       2.6  T
   7    -28.0896344 -0.209838E-06  0.399E-03    1.04       6.1  T
   8    -28.0896346 -0.231088E-06  0.129E-03    1.04      18.8  T
   9    -28.0896346 -0.549552E-08  0.509E-04    1.04      47.6  T
  10    -28.0896346 -0.113716E-08  0.264E-04    1.04      91.9  T
     SCC iter.                  ...        0 min,  4.621 sec
     gradient                   ...        0 min,  0.317 sec
 * total energy  :   -27.7914079 Eh     change       -0.1382014E-01 Eh
   gradient norm :     0.1039389 Eh/α   predicted    -0.1266176E-01 (  -8.38%)
   displ. norm   :     0.4140042 α      lambda       -0.7707422E-02
   maximum displ.:     0.3291482 α      in ANC's #1, #4, #10, ...

........................................................................
.............................. CYCLE   13 ..............................
........................................................................

 iter      E             dE          RMSdq      gap      omega  full diag
   1    -28.0933836 -0.280934E+02  0.264E-01    1.09       0.0  T
   2    -28.0932680  0.115624E-03  0.230E-01    1.06       1.0  T
   3    -28.0935007 -0.232753E-03  0.119E-01    1.09       1.0  T
   4    -28.0935515 -0.507907E-04  0.485E-02    1.08       1.0  T
   5    -28.0935708 -0.193032E-04  0.197E-02    1.08       1.2  T
   6    -28.0935755 -0.468896E-05  0.608E-03    1.08       4.0  T
   7    -28.0935758 -0.268500E-06  0.233E-03    1.08      10.4  T
   8    -28.0935758 -0.504500E-07  0.103E-03    1.08      23.4  T
   9    -28.0935758 -0.400962E-08  0.365E-04    1.08      66.4  T
  10    -28.0935758 -0.462961E-09  0.229E-04    1.08     105.7  T
     SCC iter.                  ...        0 min,  2.545 sec
     gradient                   ...        0 min,  0.165 sec
 * total energy  :   -27.7971466 Eh     change       -0.5738742E-02 Eh
   gradient norm :     0.0851976 Eh/α   predicted    -0.4514236E-02 ( -21.34%)
   displ. norm   :     0.4508310 α      lambda       -0.7446347E-02
   maximum displ.:     0.3762880 α      in ANC's #1, #4, #10, ...

........................................................................
.............................. CYCLE   14 ..............................
........................................................................

 iter      E             dE          RMSdq      gap      omega  full diag
   1    -28.0941613 -0.280942E+02  0.324E-01    1.09       0.0  T
   2    -28.0941771 -0.157489E-04  0.181E-01    1.10       1.0  T
   3    -28.0939997  0.177400E-03  0.162E-01    1.07       1.0  T
   4    -28.0941983 -0.198605E-03  0.567E-02    1.09       1.0  T
   5    -28.0942212 -0.229502E-04  0.225E-02    1.09       1.1  T
   6    -28.0942287 -0.751951E-05  0.805E-03    1.09       3.0  T
   7    -28.0942292 -0.429351E-06  0.316E-03    1.09       7.7  T
   8    -28.0942292 -0.629811E-07  0.129E-03    1.09      18.8  T
   9    -28.0942292 -0.124711E-08  0.494E-04    1.09      49.1  T
  10    -28.0942292 -0.128761E-08  0.233E-04    1.09     104.3  T
     SCC iter.                  ...        0 min,  5.363 sec
     gradient                   ...        0 min,  0.161 sec
 * total energy  :   -27.8019651 Eh     change       -0.4818478E-02 Eh
   gradient norm :     0.0855419 Eh/α   predicted    -0.4479896E-02 (  -7.03%)
   displ. norm   :     0.4003259 α      lambda       -0.4791036E-02
   maximum displ.:     0.2356806 α      in ANC's #1, #4, #7, ...

........................................................................
.............................. CYCLE   15 ..............................
........................................................................

 iter      E             dE          RMSdq      gap      omega  full diag
   1    -28.0928870 -0.280929E+02  0.308E-01    1.13       0.0  T
   2    -28.0926120  0.274931E-03  0.301E-01    1.08       1.0  T
   3    -28.0932612 -0.649145E-03  0.112E-01    1.11       1.0  T
   4    -28.0932792 -0.180025E-04  0.586E-02    1.10       1.0  T
   5    -28.0933052 -0.259796E-04  0.285E-02    1.11       1.0  T
   6    -28.0933120 -0.686219E-05  0.837E-03    1.11       2.9  T
   7    -28.0933128 -0.796276E-06  0.294E-03    1.11       8.2  T
   8    -28.0933129 -0.421046E-07  0.156E-03    1.11      15.5  T
   9    -28.0933129 -0.121898E-07  0.630E-04    1.11      38.5  T
  10    -28.0933129 -0.185994E-08  0.331E-04    1.11      73.3  T
     SCC iter.                  ...        0 min,  3.466 sec
     gradient                   ...        0 min,  0.304 sec
 * total energy  :   -27.8046885 Eh     change       -0.2723346E-02 Eh
   gradient norm :     0.0808566 Eh/α   predicted    -0.2779424E-02 (   2.06%)
   displ. norm   :     0.3153885 α      lambda       -0.3409324E-02
   maximum displ.:     0.2436446 α      in ANC's #1, #4, #6, ...

........................................................................
.............................. CYCLE   16 ..............................
........................................................................

 iter      E             dE          RMSdq      gap      omega  full diag
   1    -28.0964530 -0.280965E+02  0.253E-01    1.12       0.0  T
   2    -28.0963994  0.535964E-04  0.186E-01    1.10       1.0  T
   3    -28.0965460 -0.146589E-03  0.116E-01    1.12       1.0  T
   4    -28.0965841 -0.380982E-04  0.485E-02    1.11       1.0  T
   5    -28.0966155 -0.313590E-04  0.152E-02    1.11       1.6  T
   6    -28.0966169 -0.144410E-05  0.553E-03    1.11       4.4  T
   7    -28.0966174 -0.533244E-06  0.163E-03    1.11      14.9  T
   8    -28.0966174 -0.602106E-08  0.605E-04    1.11      40.1  T
   9    -28.0966174 -0.315119E-09  0.276E-04    1.11      87.8  T
     SCC iter.                  ...        0 min,  2.292 sec
     gradient                   ...        0 min,  0.249 sec
 * total energy  :   -27.8071830 Eh     change       -0.2494558E-02 Eh
   gradient norm :     0.0644738 Eh/α   predicted    -0.1874223E-02 ( -24.87%)
   displ. norm   :     0.3545955 α      lambda       -0.4610810E-02
   maximum displ.:     0.2384385 α      in ANC's #1, #4, #21, ...

........................................................................
.............................. CYCLE   17 ..............................
........................................................................

 iter      E             dE          RMSdq      gap      omega  full diag
   1    -28.1097208 -0.281097E+02  0.347E-01    1.11       0.0  T
   2    -28.1095727  0.148039E-03  0.334E-01    1.16       1.0  T
   3    -28.1103120 -0.739298E-03  0.127E-01    1.12       1.0  T
   4    -28.1102090  0.102995E-03  0.100E-01    1.13       1.0  T
   5    -28.1103385 -0.129464E-03  0.227E-02    1.12       1.1  T
   6    -28.1103391 -0.599877E-06  0.968E-03    1.12       2.5  T
   7    -28.1103404 -0.134007E-05  0.315E-03    1.12       7.7  T
   8    -28.1103405 -0.925998E-07  0.141E-03    1.12      17.1  T
   9    -28.1103405 -0.545286E-08  0.386E-04    1.12      62.9  T
  10    -28.1103405  0.709619E-10  0.220E-04    1.12     110.4  T
     SCC iter.                  ...        0 min,  2.814 sec
     gradient                   ...        0 min,  0.368 sec
 * total energy  :   -27.8100429 Eh     change       -0.2859918E-02 Eh
   gradient norm :     0.0510035 Eh/α   predicted    -0.2595260E-02 (  -9.25%)
   displ. norm   :     0.5231356 α      lambda       -0.5139104E-02
   maximum displ.:     0.3152974 α      in ANC's #1, #4, #2, ...

........................................................................
.............................. CYCLE   18 ..............................
........................................................................

 iter      E             dE          RMSdq      gap      omega  full diag
   1    -28.1082831 -0.281083E+02  0.567E-01    1.21       0.0  T
   2    -28.1071597  0.112339E-02  0.579E-01    1.10       1.0  T
   3    -28.1102992 -0.313955E-02  0.177E-01    1.17       1.0  T
   4    -28.1102704  0.288397E-04  0.115E-01    1.15       1.0  T
   5    -28.1104326 -0.162205E-03  0.351E-02    1.16       1.0  T
   6    -28.1104416 -0.898237E-05  0.138E-02    1.16       1.8  T
   7    -28.1104428 -0.118460E-05  0.434E-03    1.16       5.6  T
   8    -28.1104430 -0.192427E-06  0.184E-03    1.16      13.2  T
   9    -28.1104430 -0.121081E-07  0.822E-04    1.16      29.5  T
  10    -28.1104430 -0.290530E-09  0.396E-04    1.16      61.3  T
     SCC iter.                  ...        0 min,  3.264 sec
     gradient                   ...        0 min,  0.163 sec
 * total energy  :   -27.8126819 Eh     change       -0.2638995E-02 Eh
   gradient norm :     0.0517067 Eh/α   predicted    -0.3272795E-02 (  24.02%)
   displ. norm   :     0.1517608 α      lambda       -0.2794398E-02
   maximum displ.:     0.0723109 α      in ANC's #7, #1, #3, ...

........................................................................
.............................. CYCLE   19 ..............................
........................................................................

 iter      E             dE          RMSdq      gap      omega  full diag
   1    -28.1217490 -0.281217E+02  0.162E-01    1.19       0.0  T
   2    -28.1217642 -0.152230E-04  0.916E-02    1.19       1.0  T
   3    -28.1216866  0.775721E-04  0.814E-02    1.18       1.0  T
   4    -28.1217877 -0.101049E-03  0.230E-02    1.19       1.1  T
   5    -28.1217907 -0.302204E-05  0.116E-02    1.19       2.1  T
   6    -28.1217912 -0.462628E-06  0.428E-03    1.19       5.7  T
   7    -28.1217912 -0.646806E-07  0.265E-03    1.19       9.2  T
   8    -28.1217913 -0.374391E-07  0.128E-03    1.19      18.9  T
   9    -28.1217913 -0.458229E-08  0.390E-04    1.19      62.1  T
  10    -28.1217913 -0.428180E-09  0.144E-04    1.19     168.0  T
     SCC iter.                  ...        0 min,  3.831 sec
     gradient                   ...        0 min,  0.366 sec
 * total energy  :   -27.8138066 Eh     change       -0.1124683E-02 Eh
   gradient norm :     0.0695304 Eh/α   predicted    -0.1429379E-02 (  27.09%)
   displ. norm   :     0.2589575 α      lambda       -0.2287992E-02
   maximum displ.:     0.1792636 α      in ANC's #1, #4, #9, ...

........................................................................
.............................. CYCLE   20 ..............................
........................................................................

 iter      E             dE          RMSdq      gap      omega  full diag
   1    -28.1191053 -0.281191E+02  0.217E-01    1.19       0.0  T
   2    -28.1190696  0.356310E-04  0.196E-01    1.22       1.0  T
   3    -28.1193124 -0.242788E-03  0.874E-02    1.20       1.0  T
   4    -28.1192780  0.344418E-04  0.612E-02    1.21       1.0  T
   5    -28.1193293 -0.513300E-04  0.128E-02    1.20       1.9  T
   6    -28.1193297 -0.398912E-06  0.613E-03    1.20       4.0  T
   7    -28.1193301 -0.382299E-06  0.254E-03    1.20       9.5  T
   8    -28.1193302 -0.571534E-07  0.831E-04    1.20      29.2  T
   9    -28.1193302 -0.261341E-08  0.250E-04    1.20      97.2  T
     SCC iter.                  ...        0 min,  2.301 sec
     gradient                   ...        0 min,  0.311 sec
 * total energy  :   -27.8148451 Eh     change       -0.1038462E-02 Eh
   gradient norm :     0.0311608 Eh/α   predicted    -0.1220711E-02 (  17.55%)
   displ. norm   :     0.1305454 α      lambda       -0.9177212E-03
   maximum displ.:     0.0681659 α      in ANC's #4, #9, #2, ...
 * RMSD in coord.:     1.1911479 α      energy gain  -0.3835511E+01 Eh

generating ANC from exact Hessian ...
Using Lindh-Hessian (1995)
 Shifting diagonal of input Hessian by    1.8460885481805432E-002
 Lowest  eigenvalues of input Hessian
    0.010000    0.000000    0.000000    0.000000    0.000000    0.000000
    0.000000    0.020631    0.022763    0.023838    0.028438    0.029009
    0.033680    0.035585    0.045007    0.048724    0.061462    0.072371
 Highest eigenvalues
    2.027064    2.060565    2.195100    2.776633    3.874510    6.454600


........................................................................
.............................. CYCLE   21 ..............................
........................................................................

 iter      E             dE          RMSdq      gap      omega  full diag
   1    -28.1200855 -0.281201E+02  0.159E-01    1.23       0.0  T
   2    -28.1200452  0.403406E-04  0.131E-01    1.20       1.0  T
   3    -28.1201892 -0.143978E-03  0.561E-02    1.22       1.0  T
   4    -28.1201858  0.336441E-05  0.370E-02    1.21       1.0  T
   5    -28.1202049 -0.191256E-04  0.107E-02    1.21       2.3  T
   6    -28.1202055 -0.563929E-06  0.227E-03    1.21      10.7  T
   7    -28.1202055 -0.255361E-07  0.948E-04    1.21      25.6  T
   8    -28.1202055 -0.106656E-07  0.478E-04    1.21      50.7  T
     SCC iter.                  ...        0 min,  2.793 sec
     gradient                   ...        0 min,  0.299 sec
 * total energy  :   -27.8154578 Eh     change       -0.6127612E-03 Eh
   gradient norm :     0.0272694 Eh/α   predicted     0.0000000E+00 (-100.00%)
   displ. norm   :     0.1940036 α      lambda       -0.2380193E-02
   maximum displ.:     0.0961292 α      in ANC's #10, #1, #9, ...

........................................................................
.............................. CYCLE   22 ..............................
........................................................................

 iter      E             dE          RMSdq      gap      omega  full diag
   1    -28.1196602 -0.281197E+02  0.315E-01    1.22       0.0  T
   2    -28.1196929 -0.326373E-04  0.134E-01    1.21       1.0  T
   3    -28.1196628  0.300206E-04  0.113E-01    1.23       1.0  T
   4    -28.1197585 -0.957110E-04  0.293E-02    1.21       1.0  T
   5    -28.1197542  0.438810E-05  0.236E-02    1.22       1.0  T
   6    -28.1197620 -0.788180E-05  0.611E-03    1.22       4.0  T
   7    -28.1197621 -0.523172E-07  0.267E-03    1.22       9.1  T
   8    -28.1197621 -0.217680E-07  0.156E-03    1.22      15.5  T
   9    -28.1197621 -0.101484E-07  0.680E-04    1.22      35.7  T
  10    -28.1197621 -0.146193E-08  0.261E-04    1.22      92.8  T
     SCC iter.                  ...        0 min,  2.101 sec
     gradient                   ...        0 min,  0.200 sec
 * total energy  :   -27.8166634 Eh     change       -0.1205557E-02 Eh
   gradient norm :     0.0174553 Eh/α   predicted    -0.1234887E-02 (   2.43%)
   displ. norm   :     0.1961873 α      lambda       -0.1184201E-02
   maximum displ.:     0.1205391 α      in ANC's #2, #1, #7, ...

........................................................................
.............................. CYCLE   23 ..............................
........................................................................

 iter      E             dE          RMSdq      gap      omega  full diag
   1    -28.1200899 -0.281201E+02  0.170E-01    1.23       0.0  T
   2    -28.1201014 -0.115119E-04  0.880E-02    1.22       1.0  T
   3    -28.1200671  0.343821E-04  0.705E-02    1.23       1.0  T
   4    -28.1201102 -0.431579E-04  0.186E-02    1.23       1.3  T
   5    -28.1201072  0.296516E-05  0.158E-02    1.23       1.5  T
   6    -28.1201112 -0.392321E-05  0.246E-03    1.23       9.8  T
   7    -28.1201112 -0.683310E-07  0.100E-03    1.23      24.2  T
   8    -28.1201112 -0.436219E-08  0.498E-04    1.23      48.7  T
   9    -28.1201112 -0.121532E-08  0.125E-04    1.23     194.4  T
     SCC iter.                  ...        0 min,  2.737 sec
     gradient                   ...        0 min,  0.260 sec
 * total energy  :   -27.8171579 Eh     change       -0.4945196E-03 Eh
   gradient norm :     0.0144980 Eh/α   predicted    -0.6148939E-03 (  24.34%)
   displ. norm   :     0.1019236 α      lambda       -0.3045367E-03
   maximum displ.:     0.0664736 α      in ANC's #2, #1, #7, ...

........................................................................
.............................. CYCLE   24 ..............................
........................................................................

 iter      E             dE          RMSdq      gap      omega  full diag
   1    -28.1206950 -0.281207E+02  0.745E-02    1.23       0.0  T
   2    -28.1206967 -0.171846E-05  0.376E-02    1.23       1.0  T
   3    -28.1206850  0.117089E-04  0.311E-02    1.23       1.0  T
   4    -28.1206988 -0.138013E-04  0.872E-03    1.23       2.8  T
   5    -28.1206986  0.263686E-06  0.671E-03    1.23       3.6  T
   6    -28.1206990 -0.390768E-06  0.127E-03    1.23      19.1  T
   7    -28.1206990 -0.992841E-08  0.522E-04    1.23      46.5  T
   8    -28.1206990 -0.611166E-09  0.345E-04    1.23      70.3  T
     SCC iter.                  ...        0 min,  1.801 sec
     gradient                   ...        0 min,  0.304 sec
 * total energy  :   -27.8173900 Eh     change       -0.2320534E-03 Eh
   gradient norm :     0.0053096 Eh/α   predicted    -0.1538494E-03 ( -33.70%)
   displ. norm   :     0.2201147 α      lambda       -0.4056907E-03
   maximum displ.:     0.1594521 α      in ANC's #2, #7, #1, ...

........................................................................
.............................. CYCLE   25 ..............................
........................................................................

 iter      E             dE          RMSdq      gap      omega  full diag
   1    -28.1212034 -0.281212E+02  0.143E-01    1.25       0.0  T
   2    -28.1212099 -0.650872E-05  0.645E-02    1.24       1.0  T
   3    -28.1212168 -0.686542E-05  0.606E-02    1.25       1.0  T
   4    -28.1212349 -0.180790E-04  0.188E-02    1.24       1.3  T
   5    -28.1212369 -0.198450E-05  0.886E-03    1.24       2.7  T
   6    -28.1212378 -0.891107E-06  0.231E-03    1.24      10.5  T
   7    -28.1212378 -0.342950E-07  0.724E-04    1.24      33.5  T
   8    -28.1212378 -0.177617E-08  0.397E-04    1.24      61.1  T
     SCC iter.                  ...        0 min,  1.952 sec
     gradient                   ...        0 min,  0.304 sec
 * total energy  :   -27.8176746 Eh     change       -0.2846533E-03 Eh
   gradient norm :     0.0132981 Eh/α   predicted    -0.2126710E-03 ( -25.29%)
   displ. norm   :     0.2541197 α      lambda       -0.3219222E-03
   maximum displ.:     0.1902063 α      in ANC's #2, #7, #5, ...

........................................................................
.............................. CYCLE   26 ..............................
........................................................................

 iter      E             dE          RMSdq      gap      omega  full diag
   1    -28.1211753 -0.281212E+02  0.153E-01    1.28       0.0  T
   2    -28.1211794 -0.403632E-05  0.790E-02    1.26       1.0  T
   3    -28.1212121 -0.327935E-04  0.675E-02    1.27       1.0  T
   4    -28.1212273 -0.151438E-04  0.256E-02    1.27       1.0  T
   5    -28.1212363 -0.899296E-05  0.854E-03    1.27       2.8  T
   6    -28.1212365 -0.265414E-06  0.281E-03    1.27       8.6  T
   7    -28.1212366 -0.411500E-07  0.102E-03    1.27      23.8  T
   8    -28.1212366 -0.663028E-08  0.541E-04    1.27      44.8  T
   9    -28.1212366 -0.195662E-09  0.281E-04    1.27      86.3  T
     SCC iter.                  ...        0 min,  2.340 sec
     gradient                   ...        0 min,  0.236 sec
 * total energy  :   -27.8179154 Eh     change       -0.2408125E-03 Eh
   gradient norm :     0.0125461 Eh/α   predicted    -0.1713548E-03 ( -28.84%)
   displ. norm   :     0.2747001 α      lambda       -0.2999826E-03
   maximum displ.:     0.1931145 α      in ANC's #2, #7, #4, ...

........................................................................
.............................. CYCLE   27 ..............................
........................................................................

 iter      E             dE          RMSdq      gap      omega  full diag
   1    -28.1207939 -0.281208E+02  0.176E-01    1.31       0.0  T
   2    -28.1207975 -0.365784E-05  0.956E-02    1.29       1.0  T
   3    -28.1208587 -0.611242E-04  0.747E-02    1.31       1.0  T
   4    -28.1208778 -0.191711E-04  0.288E-02    1.30       1.0  T
   5    -28.1208903 -0.124576E-04  0.949E-03    1.30       2.6  T
   6    -28.1208906 -0.310871E-06  0.358E-03    1.30       6.8  T
   7    -28.1208907 -0.745371E-07  0.135E-03    1.30      18.0  T
   8    -28.1208907 -0.127272E-07  0.645E-04    1.30      37.6  T
   9    -28.1208907 -0.322931E-09  0.389E-04    1.30      62.4  T
     SCC iter.                  ...        0 min,  2.588 sec
     gradient                   ...        0 min,  0.222 sec
 * total energy  :   -27.8181168 Eh     change       -0.2013216E-03 Eh
   gradient norm :     0.0061812 Eh/α   predicted    -0.1613120E-03 ( -19.87%)
   displ. norm   :     0.1700766 α      lambda       -0.1510907E-03
   maximum displ.:     0.0985342 α      in ANC's #2, #4, #1, ...

........................................................................
.............................. CYCLE   28 ..............................
........................................................................

 iter      E             dE          RMSdq      gap      omega  full diag
   1    -28.1210028 -0.281210E+02  0.108E-01    1.33       0.0  T
   2    -28.1210036 -0.800902E-06  0.550E-02    1.31       1.0  T
   3    -28.1210216 -0.179658E-04  0.454E-02    1.33       1.0  T
   4    -28.1210313 -0.974748E-05  0.165E-02    1.32       1.5  T
   5    -28.1210351 -0.373066E-05  0.642E-03    1.32       3.8  T
   6    -28.1210353 -0.175788E-06  0.220E-03    1.32      11.0  T
   7    -28.1210353 -0.350849E-07  0.843E-04    1.32      28.8  T
   8    -28.1210353 -0.453895E-08  0.362E-04    1.32      67.0  T
     SCC iter.                  ...        0 min,  1.548 sec
     gradient                   ...        0 min,  0.219 sec
 * total energy  :   -27.8182278 Eh     change       -0.1110179E-03 Eh
   gradient norm :     0.0038336 Eh/α   predicted    -0.7772983E-04 ( -29.98%)
   displ. norm   :     0.1957108 α      lambda       -0.1522263E-03
   maximum displ.:     0.1081350 α      in ANC's #1, #2, #4, ...

........................................................................
.............................. CYCLE   29 ..............................
........................................................................

 iter      E             dE          RMSdq      gap      omega  full diag
   1    -28.1211212 -0.281211E+02  0.110E-01    1.35       0.0  T
   2    -28.1211210  0.237493E-06  0.519E-02    1.33       1.0  T
   3    -28.1211336 -0.125866E-04  0.460E-02    1.35       1.0  T
   4    -28.1211468 -0.131818E-04  0.153E-02    1.34       1.6  T
   5    -28.1211495 -0.274392E-05  0.686E-03    1.34       3.5  T
   6    -28.1211498 -0.238504E-06  0.190E-03    1.34      12.8  T
   7    -28.1211498 -0.317642E-07  0.738E-04    1.34      32.9  T
   8    -28.1211498 -0.294031E-08  0.328E-04    1.34      74.0  T
     SCC iter.                  ...        0 min,  2.659 sec
     gradient                   ...        0 min,  0.233 sec
 * total energy  :   -27.8183410 Eh     change       -0.1132366E-03 Eh
   gradient norm :     0.0041012 Eh/α   predicted    -0.7902792E-04 ( -30.21%)
   displ. norm   :     0.2477832 α      lambda       -0.1646750E-03
   maximum displ.:     0.1491204 α      in ANC's #1, #2, #3, ...

........................................................................
.............................. CYCLE   30 ..............................
........................................................................

 iter      E             dE          RMSdq      gap      omega  full diag
   1    -28.1207774 -0.281208E+02  0.114E-01    1.36       0.0  T
   2    -28.1207784 -0.975342E-06  0.473E-02    1.35       1.0  T
   3    -28.1207787 -0.297100E-06  0.479E-02    1.36       1.0  T
   4    -28.1207955 -0.168642E-04  0.150E-02    1.36       1.6  T
   5    -28.1207974 -0.185460E-05  0.740E-03    1.36       3.3  T
   6    -28.1207978 -0.455925E-06  0.167E-03    1.36      14.5  T
   7    -28.1207979 -0.239716E-07  0.731E-04    1.36      33.2  T
   8    -28.1207979 -0.230038E-08  0.352E-04    1.36      68.8  T
     SCC iter.                  ...        0 min,  2.337 sec
     gradient                   ...        0 min,  0.318 sec
 * total energy  :   -27.8184660 Eh     change       -0.1249881E-03 Eh
   gradient norm :     0.0066390 Eh/α   predicted    -0.8739337E-04 ( -30.08%)
   displ. norm   :     0.2861401 α      lambda       -0.1974001E-03
   maximum displ.:     0.1708872 α      in ANC's #1, #3, #6, ...

........................................................................
.............................. CYCLE   31 ..............................
........................................................................

 iter      E             dE          RMSdq      gap      omega  full diag
   1    -28.1205461 -0.281205E+02  0.106E-01    1.37       0.0  T
   2    -28.1205481 -0.208961E-05  0.442E-02    1.37       1.0  T
   3    -28.1205400  0.812331E-05  0.362E-02    1.37       1.0  T
   4    -28.1205497 -0.969539E-05  0.165E-02    1.37       1.5  T
   5    -28.1205516 -0.192726E-05  0.577E-03    1.37       4.2  T
   6    -28.1205521 -0.496858E-06  0.101E-03    1.37      24.0  T
   7    -28.1205521  0.102374E-08  0.635E-04    1.37      38.2  T
   8    -28.1205521 -0.334835E-08  0.235E-04    1.37     103.4  T
     SCC iter.                  ...        0 min,  1.723 sec
     gradient                   ...        0 min,  0.292 sec
 * total energy  :   -27.8186073 Eh     change       -0.1412950E-03 Eh
   gradient norm :     0.0077189 Eh/α   predicted    -0.1067806E-03 ( -24.43%)
   displ. norm   :     0.2634552 α      lambda       -0.1591889E-03
   maximum displ.:     0.1659743 α      in ANC's #1, #3, #2, ...

........................................................................
.............................. CYCLE   32 ..............................
........................................................................

 iter      E             dE          RMSdq      gap      omega  full diag
   1    -28.1195244 -0.281195E+02  0.101E-01    1.38       0.0  T
   2    -28.1195278 -0.333912E-05  0.431E-02    1.38       1.0  T
   3    -28.1195264  0.133150E-05  0.210E-02    1.38       1.2  T
   4    -28.1195279 -0.144224E-05  0.128E-02    1.38       1.9  T
   5    -28.1195285 -0.628377E-06  0.512E-03    1.38       4.7  T
   6    -28.1195290 -0.474463E-06  0.131E-03    1.38      18.5  T
   7    -28.1195290 -0.123888E-07  0.746E-04    1.38      32.5  T
   8    -28.1195290 -0.268149E-08  0.370E-04    1.38      65.5  T
     SCC iter.                  ...        0 min,  1.570 sec
     gradient                   ...        0 min,  0.264 sec
 * total energy  :   -27.8187125 Eh     change       -0.1052305E-03 Eh
   gradient norm :     0.0136542 Eh/α   predicted    -0.8512396E-04 ( -19.11%)
   displ. norm   :     0.1936244 α      lambda       -0.2134258E-03
   maximum displ.:     0.1193375 α      in ANC's #3, #6, #1, ...

........................................................................
.............................. CYCLE   33 ..............................
........................................................................

 iter      E             dE          RMSdq      gap      omega  full diag
   1    -28.1224834 -0.281225E+02  0.120E-01    1.36       0.0  T
   2    -28.1224829  0.506920E-06  0.803E-02    1.38       1.0  T
   3    -28.1225105 -0.276094E-04  0.527E-02    1.37       1.0  T
   4    -28.1225186 -0.812107E-05  0.201E-02    1.37       1.2  T
   5    -28.1225252 -0.660048E-05  0.508E-03    1.37       4.8  T
   6    -28.1225255 -0.256926E-06  0.163E-03    1.37      14.9  T
   7    -28.1225255 -0.421734E-08  0.624E-04    1.37      38.9  T
   8    -28.1225255 -0.400720E-08  0.189E-04    1.37     128.2  T
     SCC iter.                  ...        0 min,  3.391 sec
     gradient                   ...        0 min,  0.295 sec
 * total energy  :   -27.8187171 Eh     change       -0.4536171E-05 Eh
   gradient norm :     0.0175019 Eh/α   predicted    -0.1107141E-03 (2340.69%)
   displ. norm   :     0.1650312 α      lambda       -0.1966655E-03
   maximum displ.:     0.0943867 α      in ANC's #1, #2, #7, ...

........................................................................
.............................. CYCLE   34 ..............................
........................................................................

 iter      E             dE          RMSdq      gap      omega  full diag
   1    -28.1200144 -0.281200E+02  0.114E-01    1.39       0.0  T
   2    -28.1200219 -0.747186E-05  0.475E-02    1.38       1.0  T
   3    -28.1200324 -0.104868E-04  0.448E-02    1.39       1.0  T
   4    -28.1200430 -0.106424E-04  0.143E-02    1.39       1.7  T
   5    -28.1200451 -0.211298E-05  0.660E-03    1.39       3.7  T
   6    -28.1200454 -0.308240E-06  0.245E-03    1.39       9.9  T
   7    -28.1200455 -0.365117E-07  0.864E-04    1.39      28.1  T
   8    -28.1200455 -0.639672E-08  0.371E-04    1.39      65.3  T
     SCC iter.                  ...        0 min,  2.045 sec
     gradient                   ...        0 min,  0.305 sec
 * total energy  :   -27.8188301 Eh     change       -0.1129954E-03 Eh
   gradient norm :     0.0075093 Eh/α   predicted    -0.1010122E-03 ( -10.61%)
   displ. norm   :     0.0435336 α      lambda       -0.5507476E-04
   maximum displ.:     0.0292889 α      in ANC's #6, #3, #1, ...

........................................................................
.............................. CYCLE   35 ..............................
........................................................................

 iter      E             dE          RMSdq      gap      omega  full diag
   1    -28.1211417 -0.281211E+02  0.344E-02    1.39       0.0  T
   2    -28.1211426 -0.876973E-06  0.147E-02    1.39       1.7  T
   3    -28.1211423  0.263738E-06  0.921E-03    1.39       2.6  T
   4    -28.1211430 -0.640121E-06  0.355E-03    1.39       6.8  T
   5    -28.1211430 -0.520131E-07  0.121E-03    1.39      20.0  T
   6    -28.1211430 -0.321144E-08  0.728E-04    1.39      33.3  T
   7    -28.1211430 -0.581802E-08  0.277E-04    1.39      87.5  T
     SCC iter.                  ...        0 min,  1.055 sec
     gradient                   ...        0 min,  0.196 sec
 * total energy  :   -27.8188672 Eh     change       -0.3718398E-04 Eh
   gradient norm :     0.0117370 Eh/α   predicted    -0.2759021E-04 ( -25.80%)
   displ. norm   :     0.1740167 α      lambda       -0.9305315E-04
   maximum displ.:     0.1025005 α      in ANC's #1, #5, #4, ...

........................................................................
.............................. CYCLE   36 ..............................
........................................................................

 iter      E             dE          RMSdq      gap      omega  full diag
   1    -28.1206612 -0.281207E+02  0.102E-01    1.42       0.0  T
   2    -28.1206683 -0.715078E-05  0.410E-02    1.41       1.0  T
   3    -28.1206686 -0.292309E-06  0.352E-02    1.42       1.0  T
   4    -28.1206767 -0.804984E-05  0.104E-02    1.42       2.3  T
   5    -28.1206766  0.886919E-07  0.684E-03    1.42       3.5  T
   6    -28.1206773 -0.691682E-06  0.233E-03    1.42      10.4  T
   7    -28.1206773 -0.478192E-07  0.888E-04    1.42      27.3  T
   8    -28.1206773 -0.501725E-08  0.388E-04    1.42      62.4  T
     SCC iter.                  ...        0 min,  1.998 sec
     gradient                   ...        0 min,  0.264 sec
 * total energy  :   -27.8189167 Eh     change       -0.4947473E-04 Eh
   gradient norm :     0.0091455 Eh/α   predicted    -0.4793803E-04 (  -3.11%)
   displ. norm   :     0.1030059 α      lambda       -0.5293857E-04
   maximum displ.:     0.0771562 α      in ANC's #1, #3, #8, ...

........................................................................
.............................. CYCLE   37 ..............................
........................................................................

 iter      E             dE          RMSdq      gap      omega  full diag
   1    -28.1215315 -0.281215E+02  0.548E-02    1.42       0.0  T
   2    -28.1215319 -0.423410E-06  0.349E-02    1.43       1.0  T
   3    -28.1215313  0.543128E-06  0.231E-02    1.42       1.0  T
   4    -28.1215368 -0.543462E-05  0.711E-03    1.42       3.4  T
   5    -28.1215368 -0.548067E-07  0.537E-03    1.42       4.5  T
   6    -28.1215372 -0.315140E-06  0.629E-04    1.42      38.5  T
   7    -28.1215372 -0.296490E-08  0.302E-04    1.42      80.4  T
     SCC iter.                  ...        0 min,  1.034 sec
     gradient                   ...        0 min,  0.248 sec
 * total energy  :   -27.8189538 Eh     change       -0.3712184E-04 Eh
   gradient norm :     0.0095435 Eh/α   predicted    -0.2675006E-04 ( -27.94%)
   displ. norm   :     0.1135033 α      lambda       -0.4597411E-04
   maximum displ.:     0.0784423 α      in ANC's #1, #3, #5, ...

........................................................................
.............................. CYCLE   38 ..............................
........................................................................

 iter      E             dE          RMSdq      gap      omega  full diag
   1    -28.1219216 -0.281219E+02  0.522E-02    1.43       0.0  T
   2    -28.1219224 -0.801715E-06  0.256E-02    1.44       1.0  T
   3    -28.1219190  0.335756E-05  0.178E-02    1.43       1.4  T
   4    -28.1219230 -0.404341E-05  0.584E-03    1.44       4.2  T
   5    -28.1219230  0.225590E-08  0.380E-03    1.43       6.4  T
   6    -28.1219232 -0.136185E-06  0.521E-04    1.43      46.6  T
   7    -28.1219232 -0.790262E-09  0.303E-04    1.43      80.2  T
     SCC iter.                  ...        0 min,  1.787 sec
     gradient                   ...        0 min,  0.374 sec
 * total energy  :   -27.8189835 Eh     change       -0.2961896E-04 Eh
   gradient norm :     0.0026519 Eh/α   predicted    -0.2328327E-04 ( -21.39%)
   displ. norm   :     0.2643873 α      lambda       -0.4103755E-04
   maximum displ.:     0.1857374 α      in ANC's #1, #3, #5, ...

........................................................................
.............................. CYCLE   39 ..............................
........................................................................

 iter      E             dE          RMSdq      gap      omega  full diag
   1    -28.1196973 -0.281197E+02  0.119E-01    1.45       0.0  T
   2    -28.1197032 -0.594311E-05  0.489E-02    1.45       1.0  T
   3    -28.1197007  0.252532E-05  0.208E-02    1.45       1.2  T
   4    -28.1197038 -0.310157E-05  0.124E-02    1.45       2.0  T
   5    -28.1197044 -0.644371E-06  0.862E-03    1.45       2.8  T
   6    -28.1197052 -0.817944E-06  0.125E-03    1.45      19.4  T
   7    -28.1197052 -0.355886E-08  0.658E-04    1.45      36.8  T
   8    -28.1197052 -0.144676E-08  0.417E-04    1.45      58.1  T
     SCC iter.                  ...        0 min,  1.178 sec
     gradient                   ...        0 min,  0.203 sec
 * total energy  :   -27.8189745 Eh     change        0.8978056E-05 Eh
   gradient norm :     0.0149099 Eh/α   predicted    -0.2195703E-04 (-344.56%)
   displ. norm   :     0.1160265 α      lambda       -0.6976242E-04
   maximum displ.:     0.0792123 α      in ANC's #1, #3, #2, ...

........................................................................
.............................. CYCLE   40 ..............................
........................................................................

 iter      E             dE          RMSdq      gap      omega  full diag
   1    -28.1217092 -0.281217E+02  0.516E-02    1.45       0.0  T
   2    -28.1217103 -0.106086E-05  0.248E-02    1.45       1.0  T
   3    -28.1217076  0.265019E-05  0.148E-02    1.45       1.6  T
   4    -28.1217107 -0.308326E-05  0.649E-03    1.45       3.7  T
   5    -28.1217109 -0.161807E-06  0.340E-03    1.45       7.1  T
   6    -28.1217110 -0.912501E-07  0.638E-04    1.45      38.0  T
   7    -28.1217110 -0.247685E-08  0.274E-04    1.45      88.4  T
     SCC iter.                  ...        0 min,  1.341 sec
     gradient                   ...        0 min,  0.269 sec
 * total energy  :   -27.8190053 Eh     change       -0.3080076E-04 Eh
   gradient norm :     0.0012228 Eh/α   predicted    -0.3535018E-04 (  14.77%)
   displ. norm   :     0.0683394 α      lambda       -0.5865561E-05
   maximum displ.:     0.0455049 α      in ANC's #1, #2, #7, ...

........................................................................
.............................. CYCLE   41 ..............................
........................................................................

 iter      E             dE          RMSdq      gap      omega  full diag
   1    -28.1214719 -0.281215E+02  0.412E-02    1.46       0.0  T
   2    -28.1214729 -0.934415E-06  0.169E-02    1.46       1.4  T
   3    -28.1214739 -0.102257E-05  0.150E-02    1.46       1.6  T
   4    -28.1214753 -0.137821E-05  0.472E-03    1.46       5.1  T
   5    -28.1214754 -0.189902E-06  0.244E-03    1.46      10.0  T
   6    -28.1214755 -0.423576E-07  0.544E-04    1.46      44.6  T
   7    -28.1214755 -0.191304E-08  0.240E-04    1.46     101.0  T
     SCC iter.                  ...        0 min,  1.314 sec
     gradient                   ...        0 min,  0.236 sec
 * total energy  :   -27.8190108 Eh     change       -0.5528574E-05 Eh
   gradient norm :     0.0009511 Eh/α   predicted    -0.2939788E-05 ( -46.83%)
   displ. norm   :     0.1042816 α      lambda       -0.5805637E-05
   maximum displ.:     0.0697742 α      in ANC's #1, #3, #4, ...

........................................................................
.............................. CYCLE   42 ..............................
........................................................................

 iter      E             dE          RMSdq      gap      omega  full diag
   1    -28.1212156 -0.281212E+02  0.494E-02    1.47       0.0  T
   2    -28.1212169 -0.127342E-05  0.185E-02    1.47       1.3  T
   3    -28.1212165  0.354592E-06  0.110E-02    1.47       2.2  T
   4    -28.1212173 -0.756148E-06  0.508E-03    1.47       4.8  T
   5    -28.1212173 -0.207154E-08  0.258E-03    1.47       9.4  T
   6    -28.1212174 -0.102992E-06  0.765E-04    1.47      31.7  T
   7    -28.1212174 -0.764360E-08  0.324E-04    1.47      75.0  T
     SCC iter.                  ...        0 min,  1.807 sec
     gradient                   ...        0 min,  0.184 sec
 * total energy  :   -27.8190124 Eh     change       -0.1565687E-05 Eh
   gradient norm :     0.0020021 Eh/α   predicted    -0.2916257E-05 (  86.26%)
   displ. norm   :     0.0156582 α      lambda       -0.3305596E-05
   maximum displ.:     0.0107818 α      in ANC's #1, #3, #4, ...
 * RMSD in coord.:     0.3366314 α      energy gain  -0.4167295E-02 Eh

generating ANC from exact Hessian ...
Using Lindh-Hessian (1995)
 Shifting diagonal of input Hessian by    1.8497327260465116E-002
 Lowest  eigenvalues of input Hessian
    0.010000    0.000000    0.000000    0.000000    0.000000    0.000000
    0.000000    0.022560    0.023068    0.027498    0.028702    0.029293
    0.035728    0.036665    0.046726    0.059960    0.061689    0.074037
 Highest eigenvalues
    2.000147    2.050443    2.247498    2.762871    3.834016    6.427023


........................................................................
.............................. CYCLE   43 ..............................
........................................................................

 iter      E             dE          RMSdq      gap      omega  full diag
   1    -28.1214298 -0.281214E+02  0.874E-03    1.47       0.0  T
   2    -28.1214299 -0.609401E-07  0.362E-03    1.47       6.7  T
   3    -28.1214299  0.613151E-08  0.178E-03    1.47      13.6  T
   4    -28.1214299 -0.185632E-07  0.881E-04    1.47      27.5  T
   5    -28.1214299 -0.627434E-09  0.466E-04    1.47      52.0  T
     SCC iter.                  ...        0 min,  1.724 sec
     gradient                   ...        0 min,  0.305 sec
 * total energy  :   -27.8190146 Eh     change       -0.2219867E-05 Eh
   gradient norm :     0.0007226 Eh/α   predicted     0.0000000E+00 (-100.00%)
   displ. norm   :     0.0079873 α      lambda       -0.1300881E-05
   maximum displ.:     0.0058447 α      in ANC's #1, #11, #10, ...

   *** GEOMETRY OPTIMIZATION CONVERGED AFTER 43 ITERATIONS ***

------------------------------------------------------------------------
 total energy gain   :        -3.8396803 Eh    -2409.4358 kcal/mol
 total RMSD          :         1.3917931 a0        0.7365 Å
 total power (kW/mol):      -234.4437063 (step)  -60.9877 (real)
------------------------------------------------------------------------

 ANCopt (total)                0 d,  0 h,  2 min, 45.297 sec
 optimizer setup                ...        0 min,  0.004 sec (  0.002%)
 model hessian                  ...        0 min,  0.014 sec (  0.008%)
 ANC generation                 ...        0 min,  0.001 sec (  0.001%)
 coordinate transformation      ...        0 min,  0.000 sec (  0.000%)
 single point calculation       ...        2 min, 43.896 sec ( 99.152%)
 optimization log               ...        0 min,  0.004 sec (  0.002%)
 hessian update                 ...        0 min,  1.354 sec (  0.819%)
 rational function              ...        0 min,  0.007 sec (  0.005%)

================
 final structure:
================
17
 xtb: 6.7.1 (edcfbbe)
C           -2.49870386190212       -0.21585348164241       -1.16367425305604
C           -1.24396243765457       -0.26198897519148       -0.42000003287398
C           -0.49887209756937       -1.10352391140734        0.35442917876793
C            0.78412712733395       -0.62079944461706        0.57316081014803
N            1.08782282347939        0.41968244101137       -0.23818580096631
C            2.37748657747800        1.06405594928451       -0.24659770737718
N            0.08588210581998        1.01204645649943       -0.84047705343359
S           -0.96992984979384        1.78150358987734        0.87297138090710
O           -0.02820188971904        1.20514973313299        1.86678215162070
H           -3.33014302728960       -0.48927362236462       -0.51225571982289
H           -2.46569087495131       -0.91272885880633       -2.00460210487326
H           -2.66707017004515        0.78573625205133       -1.55003616108334
H           -0.88498536799896       -1.99050541533131        0.82309612693087
H            1.54855248112900       -1.06250149052480        1.18431733056022
H            3.16381915540146        0.31280734740355       -0.31307253475340
H            2.42100436880839        1.72437832443281       -1.11110735106139
H            2.51217474747651        1.65394475619560        0.66258525036631

 Bond Distances (Angstroems)
 ---------------------------
C1-C2=1.4593         C1-H10=1.0911        C1-H11=1.0927        C1-H12=1.0866        C2-C1=1.4593         C2-C3=1.3649         
C2-N7=1.8890         C3-C2=1.3649         C3-C4=1.3881         C3-H13=1.0749        C4-C3=1.3881         C4-N5=1.3539         
C4-H14=1.0738        N5-C4=1.3539         N5-C6=1.4417         N5-N7=1.3105         C6-N5=1.4417         C6-H15=1.0895        
C6-H16=1.0887        C6-H17=1.0921        N7-C2=1.8890         N7-N5=1.3105         N7-S8=2.1547         S8-N7=2.1547         
S8-O9=1.4855         O9-S8=1.4855         H10-C1=1.0911        H11-C1=1.0927        H12-C1=1.0866        H13-C3=1.0749        
H14-C4=1.0738        H15-C6=1.0895        H16-C6=1.0887        H17-C6=1.0921        
 C  H  Rav=1.0862 sigma=0.0071  Rmin=1.0738  Rmax=1.0927     8
 C  C  Rav=1.4041 sigma=0.0401  Rmin=1.3649  Rmax=1.4593     3
 N  C  Rav=1.5616 sigma=0.2343  Rmin=1.3539  Rmax=1.8890     3
 N  N  Rav=1.3105 sigma=0.0000  Rmin=1.3105  Rmax=1.3105     1
 S  N  Rav=2.1547 sigma=0.0000  Rmin=2.1547  Rmax=2.1547     1
 S  O  Rav=1.4855 sigma=0.0000  Rmin=1.4855  Rmax=1.4855     1

 selected bond angles (degree)
 --------------------
H10-C1-C2=110.06               H11-C1-C2=110.25               H11-C1-H10=108.83              H12-C1-C2=110.09               
H12-C1-H10=108.98              H12-C1-H11=108.60              C3-C2-C1=141.08                N7-C2-C1=118.07                
N7-C2-C3= 99.08                C4-C3-C2=112.30                H13-C3-C2=124.06               H13-C3-C4=123.38               
N5-C4-C3=112.34                H14-C4-C3=127.20               H14-C4-N5=119.84               C6-N5-C4=123.20                
N7-N5-C4=116.83                N7-N5-C6=118.63                H15-C6-N5=109.74               H16-C6-N5=108.15               
H16-C6-H15=109.93              H17-C6-N5=110.30               H17-C6-H15=109.52              H17-C6-H16=109.18              
N5-N7-C2= 97.53                S8-N7-C2= 73.67                S8-N7-N5= 99.82                O9-S8-N7= 94.75                

 selected dihedral angles (degree)
 ---------------------------------
C3-C2-C1-H10= 54.33           C3-C2-C1-H11=294.27           C3-C2-C1-H12=174.48           N7-C2-C1-H10=215.24           
N7-C2-C1-H11= 95.18           N7-C2-C1-H12=335.39           C4-C3-C2-C1=168.08            C4-C3-C2-N7=  5.07            
H13-C3-C2-C1=342.44           H13-C3-C2-N7=179.44           N5-C4-C3-C2=347.56            N5-C4-C3-H13=173.15           
H14-C4-C3-C2=176.70           H14-C4-C3-H13=  2.29          C6-N5-C4-C3=182.60            C6-N5-C4-H14=354.21           
N7-N5-C4-C3= 16.01            N7-N5-C4-H14=187.62           H15-C6-N5-C4= 49.03           H15-C6-N5-N7=215.39           
H16-C6-N5-C4=168.94           H16-C6-N5-N7=335.30           H17-C6-N5-C4=288.27           H17-C6-N5-N7= 94.63           
C2-N7-N5-C4=349.10            C2-N7-N5-C6=181.88            S8-N7-N5-C4= 63.74            S8-N7-N5-C6=256.52            
O9-S8-N7-C2= 93.54            O9-S8-N7-N5=358.49            

 CMA Distance (Angstroems)
 ---------------------------
R(CMA):  2.2502
           -------------------------------------------------
          |                Final Singlepoint                |
           -------------------------------------------------

          ...................................................
          :                      SETUP                      :
          :.................................................:
          :  # basis functions                  50          :
          :  # atomic orbitals                  49          :
          :  # shells                           27          :
          :  # electrons                        50          :
          :  max. iterations                   250          :
          :  Hamiltonian                  GFN2-xTB          :
          :  restarted?                      false          :
          :  GBSA solvation                  false          :
          :  PC potential                    false          :
          :  electronic temp.          300.0000000     K    :
          :  accuracy                    1.0000000          :
          :  -> integral cutoff          0.2500000E+02      :
          :  -> integral neglect         0.1000000E-07      :
          :  -> SCF convergence          0.1000000E-05 Eh   :
          :  -> wf. convergence          0.1000000E-03 e    :
          :  Broyden damping             0.4000000          :
          :  net charge                          0          :
          :  unpaired electrons                  0          :
          ...................................................

 iter      E             dE          RMSdq      gap      omega  full diag
   1    -28.1214299 -0.281214E+02  0.184E-04    1.47       0.0  T
   2    -28.1214299  0.266645E-09  0.205E-04    1.47     118.4  T
   3    -28.1214299 -0.649081E-09  0.510E-05    1.47     475.9  T

   *** convergence criteria satisfied after 3 iterations ***

         #    Occupation            Energy/Eh            Energy/eV
      -------------------------------------------------------------
         1        2.0000           -0.7135883             -19.4177
       ...           ...                  ...                  ...
        19        2.0000           -0.4725223             -12.8580
        20        2.0000           -0.4610635             -12.5462
        21        2.0000           -0.4389285             -11.9439
        22        2.0000           -0.4220494             -11.4845
        23        2.0000           -0.4104444             -11.1688
        24        2.0000           -0.3890588             -10.5868
        25        2.0000           -0.3216922              -8.7537 (HOMO)
        26                         -0.2678439              -7.2884 (LUMO)
        27                         -0.2447608              -6.6603
        28                         -0.2190932              -5.9618
        29                         -0.1723753              -4.6906
        30                         -0.1236945              -3.3659
       ...                                ...                  ...
        49                          0.8003115              21.7776
      -------------------------------------------------------------
                  HL-Gap            0.0538484 Eh            1.4653 eV
             Fermi-level           -0.2947715 Eh           -8.0211 eV

 SCC (total)                   0 d,  0 h,  0 min,  1.404 sec
 SCC setup                      ...        0 min,  0.014 sec (  1.002%)
 Dispersion                     ...        0 min,  0.037 sec (  2.652%)
 classical contributions        ...        0 min,  0.021 sec (  1.480%)
 integral evaluation            ...        0 min,  0.092 sec (  6.533%)
 iterations                     ...        0 min,  0.956 sec ( 68.131%)
 molecular gradient             ...        0 min,  0.283 sec ( 20.191%)
 printout                       ...        0 min,  0.000 sec (  0.010%)

         :::::::::::::::::::::::::::::::::::::::::::::::::::::
         ::                     SUMMARY                     ::
         :::::::::::::::::::::::::::::::::::::::::::::::::::::
         :: total energy             -27.819014591331 Eh    ::
         :: gradient norm              0.000727466016 Eh/a0 ::
         :: HOMO-LUMO gap              1.465288992951 eV    ::
         ::.................................................::
         :: SCC energy               -28.121382093622 Eh    ::
         :: -> isotropic ES            0.042678905025 Eh    ::
         :: -> anisotropic ES         -0.004302636645 Eh    ::
         :: -> anisotropic XC          0.016200031228 Eh    ::
         :: -> dispersion             -0.015590009366 Eh    ::
         :: repulsion energy           0.300554190661 Eh    ::
         :: add. restraining           0.001813311629 Eh    ::
         :: total charge              -0.000000000000 e     ::
         :::::::::::::::::::::::::::::::::::::::::::::::::::::

           -------------------------------------------------
          |                Property Printout                |
           -------------------------------------------------

    * Orbital Energies and Occupations

         #    Occupation            Energy/Eh            Energy/eV
      -------------------------------------------------------------
         1        2.0000           -0.7135883             -19.4177
       ...           ...                  ...                  ...
        13        2.0000           -0.5089596             -13.8495
        14        2.0000           -0.5049682             -13.7409
        15        2.0000           -0.4944229             -13.4539
        16        2.0000           -0.4868626             -13.2482
        17        2.0000           -0.4818053             -13.1106
        18        2.0000           -0.4728698             -12.8674
        19        2.0000           -0.4725223             -12.8580
        20        2.0000           -0.4610635             -12.5462
        21        2.0000           -0.4389285             -11.9439
        22        2.0000           -0.4220494             -11.4845
        23        2.0000           -0.4104444             -11.1688
        24        2.0000           -0.3890588             -10.5868
        25        2.0000           -0.3216922              -8.7537 (HOMO)
        26                         -0.2678439              -7.2884 (LUMO)
        27                         -0.2447608              -6.6603
        28                         -0.2190932              -5.9618
        29                         -0.1723753              -4.6906
        30                         -0.1236945              -3.3659
        31                          0.0139791               0.3804
        32                          0.0276965               0.7537
        33                          0.0623089               1.6955
        34                          0.0924737               2.5163
        35                          0.1055550               2.8723
        36                          0.1151700               3.1339
       ...                                ...                  ...
        49                          0.8003115              21.7776
      -------------------------------------------------------------
                  HL-Gap            0.0538484 Eh            1.4653 eV
             Fermi-level           -0.2947715 Eh           -8.0211 eV

     #   Z          covCN         q      C6AA      α(0)
     1   6 C        3.753    -0.104    22.552     6.772
     2   6 C        2.955     0.042    27.056     8.532
     3   6 C        2.924    -0.050    29.243     8.868
     4   6 C        2.925     0.025    27.447     8.592
     5   7 N        2.864     0.119    19.210     6.510
     6   6 C        3.698    -0.059    21.815     6.680
     7   7 N        2.288    -0.248    26.753     7.678
     8  16 S        1.950     0.158   134.783    19.540
     9   8 O        0.860    -0.430    22.283     6.329
    10   1 H        0.924     0.068     2.112     2.273
    11   1 H        0.924     0.065     2.143     2.289
    12   1 H        0.925     0.081     1.968     2.194
    13   1 H        0.926     0.058     2.227     2.334
    14   1 H        0.926     0.055     2.262     2.352
    15   1 H        0.925     0.061     2.188     2.313
    16   1 H        0.925     0.081     1.971     2.196
    17   1 H        0.924     0.081     1.972     2.196

 Mol. C6AA /au·bohr⁶  :       3917.375375
 Mol. C8AA /au·bohr⁸  :     104130.572699
 Mol. α(0) /au        :         97.646340


Wiberg/Mayer (AO) data.
largest (>0.10) Wiberg bond orders for each atom

 ---------------------------------------------------------------------------
     #   Z sym  total        # sym  WBO       # sym  WBO       # sym  WBO
 ---------------------------------------------------------------------------
     1   6 C    3.993 --     2 C    1.073    12 H    0.967    10 H    0.957
                            11 H    0.955
     2   6 C    3.936 --     3 C    1.489     1 C    1.073     7 N    0.809
                             8 S    0.368
     3   6 C    3.981 --     2 C    1.489     4 C    1.388    13 H    0.946
     4   6 C    3.967 --     3 C    1.388     5 N    1.237    14 H    0.966
                             8 S    0.137     9 O    0.104
     5   7 N    3.689 --     7 N    1.255     4 C    1.237     6 C    0.983
                             8 S    0.110
     6   6 C    3.961 --     5 N    0.983    16 H    0.979    15 H    0.978
                            17 H    0.968
     7   7 N    2.979 --     5 N    1.255     2 C    0.809     8 S    0.600
                             9 O    0.103
     8  16 S    3.072 --     9 O    1.775     7 N    0.600     2 C    0.368
                             4 C    0.137     5 N    0.110
     9   8 O    2.116 --     8 S    1.775     4 C    0.104     7 N    0.103
    10   1 H    0.994 --     1 C    0.957
    11   1 H    0.996 --     1 C    0.955
    12   1 H    0.993 --     1 C    0.967
    13   1 H    0.996 --     3 C    0.946
    14   1 H    0.997 --     4 C    0.966
    15   1 H    0.996 --     6 C    0.978
    16   1 H    0.993 --     6 C    0.979
    17   1 H    0.993 --     6 C    0.968
 ---------------------------------------------------------------------------

Topologies differ in total number of bonds
Writing topology from bond orders to xtbtopo.mol

molecular dipole:
                 x           y           z       tot (Debye)
 q only:        0.192      -0.680      -1.140
   full:        0.358      -0.921      -0.758       3.166
molecular quadrupole (traceless):
                xx          xy          yy          xz          yz          zz
 q only:       11.188       1.999      -1.977       1.801      -3.840      -9.212
  q+dip:       11.364       2.932      -2.012       1.845      -3.165      -9.352
   full:       11.144       2.593      -2.170       1.399      -2.135      -8.974

           -------------------------------------------------
          |                Geometry Summary                 |
           -------------------------------------------------

      molecular mass/u    :      144.1948042
   center of mass at/Å    :       -0.1926750       0.5743030       0.2015689
  moments of inertia/u·Å² :        0.2526844E+03   0.3564270E+03   0.4404377E+03
rotational constants/cm⁻¹ :        0.6671418E-01   0.4729617E-01   0.3827472E-01

 * 14 selected distances

     #   Z          #   Z                                           value/Å
     1   6 C        2   6 C                                       1.4592999 (max)
     2   6 C        3   6 C                                       1.3649475
     3   6 C        4   6 C                                       1.3881476
     4   6 C        5   7 N                                       1.3539266
     5   7 N        6   6 C                                       1.4417077
     5   7 N        7   7 N                                       1.3105477
     1   6 C       10   1 H                                       1.0910527
     1   6 C       11   1 H                                       1.0926505
     1   6 C       12   1 H                                       1.0866485
     3   6 C       13   1 H                                       1.0749272
     4   6 C       14   1 H                                       1.0737594 (min)
     6   6 C       15   1 H                                       1.0895469
     6   6 C       16   1 H                                       1.0887133
     6   6 C       17   1 H                                       1.0921188

 * 4 distinct bonds (by element types)

   Z      Z             #   av. dist./Å        max./Å        min./Å
   1 H    6 C           8     1.0861772     1.0926505     1.0737594
   6 C    6 C           3     1.4041317     1.4592999     1.3649475
   6 C    7 N           2     1.3978171     1.4417077     1.3539266
   7 N    7 N           1     1.3105477     1.3105477     1.3105477


optimized geometry written to: xtbopt.xyz


           -------------------------------------------------
          | TOTAL ENERGY              -27.819014591331 Eh   |
          | GRADIENT NORM               0.000727466016 Eh/α |
          | HOMO-LUMO GAP               1.465288992951 eV   |
           -------------------------------------------------

------------------------------------------------------------------------
 * finished run on 2026/08/20 at 02:35:26.784     
------------------------------------------------------------------------
 total:
 * wall-time:     0 d,  0 h,  2 min, 55.038 sec
 *  cpu-time:     0 d,  0 h,  4 min,  4.630 sec
 * ratio c/w:     1.398 speedup
 SCF:
 * wall-time:     0 d,  0 h,  0 min,  8.016 sec
 *  cpu-time:     0 d,  0 h,  0 min,  8.861 sec
 * ratio c/w:     1.105 speedup
 ANC optimizer:
 * wall-time:     0 d,  0 h,  2 min, 46.727 sec
 *  cpu-time:     0 d,  0 h,  3 min, 55.369 sec
 * ratio c/w:     1.412 speedup

