17
 energy: -27.872989509188 gnorm: 0.000231908789 xtb: 6.7.1 (edcfbbe)
C           -2.86078191207470       -0.38631207653286       -0.43794440070155
C           -1.41478328160503       -0.16792584899248       -0.18836766348676
C           -0.48090035578148       -1.11849089472735       -0.02032683535632
C            0.90180967375671       -0.81447653723567        0.07352339211807
N            1.36984346514140        0.36282116955319       -0.28505013575974
C            2.80606740191735        0.57151686402601       -0.35831055496158
N            0.66428247028039        1.39871553720087       -0.62247718614869
S           -0.88853037256047        1.56959000670279        0.00981713244567
O           -0.74243124762489        1.69830142214317        1.46405081103418
H           -3.44859707143159        0.09924707429868        0.34100092993962
H           -3.10523234148109       -1.44699397929456       -0.45977702587540
H           -3.14485322422122        0.06150222290130       -1.39072876358082
H           -0.75375425567626       -2.16599958419836        0.01920508338439
H            1.61731777158895       -1.57507393145012        0.33603740417721
H            3.19321750091138        0.79105276711710        0.63780519023936
H            3.30487681643916       -0.30954563157584       -0.75798361950045
H            2.98244896242145        1.43207142006436       -1.00055575796761
