      -----------------------------------------------------------      
     |                   =====================                   |     
     |                           x T B                           |     
     |                   =====================                   |     
     |                         S. Grimme                         |     
     |          Mulliken Center for Theoretical Chemistry        |     
     |                    University of Bonn                     |     
      -----------------------------------------------------------      

   * xtb version 6.7.1 (edcfbbe) compiled by 'conda@3ef47c1a292c' on 2024-11-25

   xtb is free software: you can redistribute it and/or modify it under
   the terms of the GNU Lesser General Public License as published by
   the Free Software Foundation, either version 3 of the License, or
   (at your option) any later version.
   
   xtb is distributed in the hope that it will be useful,
   but WITHOUT ANY WARRANTY; without even the implied warranty of
   MERCHANTABILITY or FITNESS FOR A PARTICULAR PURPOSE.  See the
   GNU Lesser General Public License for more details.
   
   Cite this work as:
   * C. Bannwarth, E. Caldeweyher, S. Ehlert, A. Hansen, P. Pracht,
     J. Seibert, S. Spicher, S. Grimme, WIREs Comput. Mol. Sci., 2020, 11,
     e01493. DOI: 10.1002/wcms.1493
   
   for GFN2-xTB:
   * C. Bannwarth, S. Ehlert and S. Grimme., J. Chem. Theory Comput., 2019,
     15, 1652-1671. DOI: 10.1021/acs.jctc.8b01176
   for GFN1-xTB:
   * S. Grimme, C. Bannwarth, P. Shushkov, J. Chem. Theory Comput., 2017,
     13, 1989-2009. DOI: 10.1021/acs.jctc.7b00118
   for GFN0-xTB:
   * P. Pracht, E. Caldeweyher, S. Ehlert, S. Grimme, ChemRxiv, 2019, preprint.
     DOI: 10.26434/chemrxiv.8326202.v1
   for GFN-FF:
   * S. Spicher and S. Grimme, Angew. Chem. Int. Ed., 2020, 59, 15665-15673.
     DOI: 10.1002/anie.202004239
   
   for ALPB and GBSA implicit solvation:
   * S. Ehlert, M. Stahn, S. Spicher, S. Grimme, J. Chem. Theory Comput.,
     2021, 17, 4250-4261. DOI: 10.1021/acs.jctc.1c00471
   
   for ddCOSMO and CPCM-X implicit solvation:
   * M. Stahn, S. Ehlert, S. Grimme, J. Phys. Chem. A,
     2023, XX, XXXX-XXXX. DOI: 10.1021/acs.jpca.3c04382
   
   for DFT-D4:
   * E. Caldeweyher, C. Bannwarth and S. Grimme, J. Chem. Phys., 2017,
     147, 034112. DOI: 10.1063/1.4993215
   * E. Caldeweyher, S. Ehlert, A. Hansen, H. Neugebauer, S. Spicher,
     C. Bannwarth and S. Grimme, J. Chem. Phys., 2019, 150, 154122.
     DOI: 10.1063/1.5090222
   * E. Caldeweyher, J.-M. Mewes, S. Ehlert and S. Grimme, Phys. Chem. Chem. Phys.
     2020, 22, 8499-8512. DOI: 10.1039/D0CP00502A
   
   for sTDA-xTB:
   * S. Grimme and C. Bannwarth, J. Chem. Phys., 2016, 145, 054103.
     DOI: 10.1063/1.4959605
   
   in the mass-spec context:
   * V. Asgeirsson, C. Bauer and S. Grimme, Chem. Sci., 2017, 8, 4879.
     DOI: 10.1039/c7sc00601b
   * J. Koopman and S. Grimme, ACS Omega 2019, 4, 12, 15120-15133.
     DOI: 10.1021/acsomega.9b02011
   
   for metadynamics refer to:
   * S. Grimme, J. Chem. Theory Comput., 2019, 155, 2847-2862
     DOI: 10.1021/acs.jctc.9b00143
   
   for SPH calculations refer to:
   * S. Spicher and S. Grimme, J. Chem. Theory Comput., 2021, 17, 1701-1714
     DOI: 10.1021/acs.jctc.0c01306
   
   for ONIOM refer to:
   * C. Plett, A. Katbashev, S. Ehlert, S. Grimme, M. Bursch,
     Phys. Chem. Chem. Phys., 2023, 25, 17860-17868. DOI: 10.1039/D3CP02178E
   
   for DIPRO refer to:
   * J. Kohn, N. Gildemeister, S. Grimme, D. Fazzi, A. Hansen,
     J. Chem. Phys., 2023, just accepted.
   
   for PTB refer to:
   * S. Grimme, M. Mueller, A. Hansen, J. Chem. Phys., 2023, 158, 124111.
     DOI: 10.1063/5.0137838
   
   with help from (in alphabetical order)
   P. Atkinson, C. Bannwarth, F. Bohle, G. Brandenburg, E. Caldeweyher
   M. Checinski, S. Dohm, S. Ehlert, S. Ehrlich, I. Gerasimov, C. Hölzer
   A. Katbashev, J. Kohn, J. Koopman, C. Lavigne, S. Lehtola, F. März, M. Müller,
   F. Musil, H. Neugebauer, J. Pisarek, C. Plett, P. Pracht, F. Pultar,
   J. Seibert, P. Shushkov, S. Spicher, M. Stahn, M. Steiner, T. Strunk,
   J. Stückrath, T. Rose, and J. Unsleber
   
 * started run on 2026/08/20 at 02:50:49.003     
   ID    Z sym.   atoms
    1    6 C      1, 2, 5-7
    2    7 N      3, 4
    3    1 H      8-15
    4   16 S      16
    5    8 O      17

           -------------------------------------------------
          |                Calculation Setup                |
           -------------------------------------------------

          program call               : xtb ../../../structures/pathway_B_product.xyz --sp --gfn 2
          coordinate file            : ../../../structures/pathway_B_product.xyz
          omp threads                :                    16


molecular fragmentation (1/2 indicates fragments):
11111111111111122
# atoms in fragment 1/2:    15     2
 fragment masses (1/2) :       96.13       48.06
CMA distance (Bohr)    :  21.773
constraining FC (au)   :  0.0500

           -------------------------------------------------
          |                 G F N 2 - x T B                 |
           -------------------------------------------------

        Reference                      10.1021/acs.jctc.8b01176
      * Hamiltonian:
        H0-scaling (s, p, d)           1.850000    2.230000    2.230000
        zeta-weighting                 0.500000
      * Dispersion:
        s8                             2.700000
        a1                             0.520000
        a2                             5.000000
        s9                             5.000000
      * Repulsion:
        kExp                           1.500000    1.000000
        rExp                           1.000000
      * Coulomb:
        alpha                          2.000000
        third order                    shell-resolved
        anisotropic                    true
        a3                             3.000000
        a5                             4.000000
        cn-shift                       1.200000
        cn-exp                         4.000000
        max-rad                        5.000000


          ...................................................
          :                      SETUP                      :
          :.................................................:
          :  # basis functions                  50          :
          :  # atomic orbitals                  49          :
          :  # shells                           27          :
          :  # electrons                        50          :
          :  max. iterations                   250          :
          :  Hamiltonian                  GFN2-xTB          :
          :  restarted?                      false          :
          :  GBSA solvation                  false          :
          :  PC potential                    false          :
          :  electronic temp.          300.0000000     K    :
          :  accuracy                    1.0000000          :
          :  -> integral cutoff          0.2500000E+02      :
          :  -> integral neglect         0.1000000E-07      :
          :  -> SCF convergence          0.1000000E-05 Eh   :
          :  -> wf. convergence          0.1000000E-03 e    :
          :  Broyden damping             0.4000000          :
          :  net charge                          0          :
          :  unpaired electrons                  0          :
          ...................................................

 iter      E             dE          RMSdq      gap      omega  full diag
   1    -28.1252004 -0.281252E+02  0.374E+00    0.00       0.0  T
   2    -28.1734395 -0.482390E-01  0.246E+00    0.00       1.0  T
   3    -28.1806350 -0.719551E-02  0.123E+00    0.00       1.0  T
   4    -28.1827611 -0.212609E-02  0.387E-01    0.00       1.0  T
   5    -28.1835916 -0.830539E-03  0.454E-01    0.01       1.0  T
   6    -28.1837366 -0.144948E-03  0.149E-01    0.00       1.0  T
   7    -28.1837518 -0.152695E-04  0.454E-02    0.00       1.0  T
   8    -28.1837597 -0.789695E-05  0.223E-02    0.00       1.1  T
   9    -28.1837605 -0.775504E-06  0.819E-03    0.00       3.0  T
  10    -28.1837608 -0.265799E-06  0.399E-03    0.00       6.1  T
  11    -28.1837608 -0.151087E-07  0.157E-03    0.00      15.4  T
  12    -28.1837608 -0.104935E-07  0.667E-04    0.00      36.4  T
  13    -28.1837608 -0.669676E-09  0.297E-04    0.00      81.8  T

   *** convergence criteria satisfied after 13 iterations ***

         #    Occupation            Energy/Eh            Energy/eV
      -------------------------------------------------------------
         1        2.0000           -0.7719327             -21.0054
       ...           ...                  ...                  ...
        19        2.0000           -0.4667339             -12.7005
        20        2.0000           -0.4515574             -12.2875
        21        2.0000           -0.4424207             -12.0389
        22        2.0000           -0.3906657             -10.6306
        23        1.9999           -0.3807020             -10.3594
        24        1.9997           -0.3797514             -10.3336
        25        1.0002           -0.3712804             -10.1031 (HOMO)
        26        1.0001           -0.3712802             -10.1030 (LUMO)
        27                         -0.1996649              -5.4332
        28                         -0.1773395              -4.8257
        29                         -0.1470325              -4.0010
        30                         -0.0407466              -1.1088
       ...                                ...                  ...
        49                          0.7822334              21.2857
      -------------------------------------------------------------
                  HL-Gap            0.0000002 Eh            0.0000 eV
             Fermi-level           -0.3712800 Eh          -10.1030 eV

 SCC (total)                   0 d,  0 h,  0 min,  1.885 sec
 SCC setup                      ...        0 min,  0.016 sec (  0.855%)
 Dispersion                     ...        0 min,  0.045 sec (  2.364%)
 classical contributions        ...        0 min,  0.024 sec (  1.280%)
 integral evaluation            ...        0 min,  0.087 sec (  4.636%)
 iterations                     ...        0 min,  1.502 sec ( 79.697%)
 molecular gradient             ...        0 min,  0.210 sec ( 11.159%)
 printout                       ...        0 min,  0.000 sec (  0.006%)

         :::::::::::::::::::::::::::::::::::::::::::::::::::::
         ::                     SUMMARY                     ::
         :::::::::::::::::::::::::::::::::::::::::::::::::::::
         :: total energy             -27.861377864121 Eh    ::
         :: gradient norm              0.000248242327 Eh/a0 ::
         :: HOMO-LUMO gap              0.000005716814 eV    ::
         ::.................................................::
         :: SCC energy               -28.183771578994 Eh    ::
         :: -> isotropic ES            0.028190577063 Eh    ::
         :: -> anisotropic ES          0.002951184622 Eh    ::
         :: -> anisotropic XC          0.016211859064 Eh    ::
         :: -> dispersion             -0.010177324308 Eh    ::
         :: repulsion energy           0.322393714873 Eh    ::
         :: add. restraining           0.000000000000 Eh    ::
         :: total charge               0.000000000028 e     ::
         :::::::::::::::::::::::::::::::::::::::::::::::::::::

           -------------------------------------------------
          |                Property Printout                |
           -------------------------------------------------

    * Orbital Energies and Occupations

         #    Occupation            Energy/Eh            Energy/eV
      -------------------------------------------------------------
         1        2.0000           -0.7719327             -21.0054
       ...           ...                  ...                  ...
        13        2.0000           -0.5322174             -14.4824
        14        2.0000           -0.5322173             -14.4824
        15        2.0000           -0.4961088             -13.4998
        16        2.0000           -0.4929096             -13.4128
        17        2.0000           -0.4851011             -13.2003
        18        2.0000           -0.4690008             -12.7622
        19        2.0000           -0.4667339             -12.7005
        20        2.0000           -0.4515574             -12.2875
        21        2.0000           -0.4424207             -12.0389
        22        2.0000           -0.3906657             -10.6306
        23        1.9999           -0.3807020             -10.3594
        24        1.9997           -0.3797514             -10.3336
        25        1.0002           -0.3712804             -10.1031 (HOMO)
        26        1.0001           -0.3712802             -10.1030 (LUMO)
        27                         -0.1996649              -5.4332
        28                         -0.1773395              -4.8257
        29                         -0.1470325              -4.0010
        30                         -0.0407466              -1.1088
        31                         -0.0407466              -1.1088
        32                          0.0129646               0.3528
        33                          0.0713031               1.9403
        34                          0.0713034               1.9403
        35                          0.1130234               3.0755
        36                          0.1245765               3.3899
       ...                                ...                  ...
        49                          0.7822334              21.2857
      -------------------------------------------------------------
                  HL-Gap            0.0000002 Eh            0.0000 eV
             Fermi-level           -0.3712800 Eh          -10.1030 eV

     #   Z          covCN         q      C6AA      α(0)
     1   6 C        3.755    -0.109    22.636     6.784
     2   6 C        3.153     0.068    26.209     8.372
     3   7 N        2.015    -0.254    27.394     7.763
     4   7 N        3.033     0.082    19.812     6.611
     5   6 C        3.692    -0.061    21.862     6.691
     6   6 C        3.023    -0.022    28.534     8.762
     7   6 C        3.025    -0.085    30.102     9.000
     8   1 H        0.925     0.042     2.421     2.433
     9   1 H        0.925     0.042     2.420     2.433
    10   1 H        0.925     0.053     2.279     2.361
    11   1 H        0.924     0.057     2.234     2.337
    12   1 H        0.925     0.083     1.948     2.183
    13   1 H        0.924     0.057     2.233     2.337
    14   1 H        0.926     0.027     2.634     2.538
    15   1 H        0.926     0.020     2.731     2.584
    16  16 S        0.859     0.311   127.212    19.077
    17   8 O        0.859    -0.311    19.983     5.993

 Mol. C6AA /au·bohr⁶  :       3959.793719
 Mol. C8AA /au·bohr⁸  :     104206.760478
 Mol. α(0) /au        :         98.259285


Wiberg/Mayer (AO) data.
largest (>0.10) Wiberg bond orders for each atom

 ---------------------------------------------------------------------------
     #   Z sym  total        # sym  WBO       # sym  WBO       # sym  WBO
 ---------------------------------------------------------------------------
     1   6 C    3.997 --     2 C    1.027    10 H    0.984     8 H    0.974
                             9 H    0.973
     2   6 C    3.977 --     3 N    1.484     7 C    1.338     1 C    1.027
     3   7 N    2.956 --     2 C    1.484     4 N    1.198     6 C    0.153
     4   7 N    3.669 --     6 C    1.276     3 N    1.198     5 C    1.005
     5   6 C    3.971 --     4 N    1.005    12 H    0.979    13 H    0.975
                            11 H    0.974
     6   6 C    3.958 --     7 C    1.512     4 N    1.276    14 H    0.969
                             3 N    0.153
     7   6 C    3.977 --     6 C    1.512     2 C    1.338    15 H    0.975
     8   1 H    0.998 --     1 C    0.974
     9   1 H    0.998 --     1 C    0.973
    10   1 H    0.997 --     1 C    0.984
    11   1 H    0.996 --     5 C    0.974
    12   1 H    0.993 --     5 C    0.979
    13   1 H    0.996 --     5 C    0.975
    14   1 H    0.999 --     6 C    0.969
    15   1 H    1.000 --     7 C    0.975
    16  16 S    1.755 --    17 O    1.755
Note: The following floating-point exceptions are signalling: IEEE_DENORMAL
normal termination of xtb
    17   8 O    1.755 --    16 S    1.755
 ---------------------------------------------------------------------------

Topologies differ in total number of bonds
Writing topology from bond orders to xtbtopo.mol

molecular dipole:
                 x           y           z       tot (Debye)
 q only:       -1.504      -0.022      -0.022
   full:       -1.392       0.379      -0.120       3.680
molecular quadrupole (traceless):
                xx          xy          yy          xz          yz          zz
 q only:      -32.979       0.617      16.554       0.221      -0.012      16.426
  q+dip:      -27.091       0.213      13.808       0.380      -0.127      13.283
   full:      -27.305       0.191      13.154       0.342       0.254      14.152


           -------------------------------------------------
          | TOTAL ENERGY              -27.861377864121 Eh   |
          | GRADIENT NORM               0.000248242327 Eh/α |
          | HOMO-LUMO GAP               0.000005716814 eV   |
           -------------------------------------------------

------------------------------------------------------------------------
 * finished run on 2026/08/20 at 02:50:51.158     
------------------------------------------------------------------------
 total:
 * wall-time:     0 d,  0 h,  0 min,  2.155 sec
 *  cpu-time:     0 d,  0 h,  0 min, 16.264 sec
 * ratio c/w:     7.547 speedup
 SCF:
 * wall-time:     0 d,  0 h,  0 min,  1.885 sec
 *  cpu-time:     0 d,  0 h,  0 min, 15.013 sec
 * ratio c/w:     7.965 speedup

