      -----------------------------------------------------------      
     |                   =====================                   |     
     |                           x T B                           |     
     |                   =====================                   |     
     |                         S. Grimme                         |     
     |          Mulliken Center for Theoretical Chemistry        |     
     |                    University of Bonn                     |     
      -----------------------------------------------------------      

   * xtb version 6.7.1 (edcfbbe) compiled by 'conda@3ef47c1a292c' on 2024-11-25

   xtb is free software: you can redistribute it and/or modify it under
   the terms of the GNU Lesser General Public License as published by
   the Free Software Foundation, either version 3 of the License, or
   (at your option) any later version.
   
   xtb is distributed in the hope that it will be useful,
   but WITHOUT ANY WARRANTY; without even the implied warranty of
   MERCHANTABILITY or FITNESS FOR A PARTICULAR PURPOSE.  See the
   GNU Lesser General Public License for more details.
   
   Cite this work as:
   * C. Bannwarth, E. Caldeweyher, S. Ehlert, A. Hansen, P. Pracht,
     J. Seibert, S. Spicher, S. Grimme, WIREs Comput. Mol. Sci., 2020, 11,
     e01493. DOI: 10.1002/wcms.1493
   
   for GFN2-xTB:
   * C. Bannwarth, S. Ehlert and S. Grimme., J. Chem. Theory Comput., 2019,
     15, 1652-1671. DOI: 10.1021/acs.jctc.8b01176
   for GFN1-xTB:
   * S. Grimme, C. Bannwarth, P. Shushkov, J. Chem. Theory Comput., 2017,
     13, 1989-2009. DOI: 10.1021/acs.jctc.7b00118
   for GFN0-xTB:
   * P. Pracht, E. Caldeweyher, S. Ehlert, S. Grimme, ChemRxiv, 2019, preprint.
     DOI: 10.26434/chemrxiv.8326202.v1
   for GFN-FF:
   * S. Spicher and S. Grimme, Angew. Chem. Int. Ed., 2020, 59, 15665-15673.
     DOI: 10.1002/anie.202004239
   
   for ALPB and GBSA implicit solvation:
   * S. Ehlert, M. Stahn, S. Spicher, S. Grimme, J. Chem. Theory Comput.,
     2021, 17, 4250-4261. DOI: 10.1021/acs.jctc.1c00471
   
   for ddCOSMO and CPCM-X implicit solvation:
   * M. Stahn, S. Ehlert, S. Grimme, J. Phys. Chem. A,
     2023, XX, XXXX-XXXX. DOI: 10.1021/acs.jpca.3c04382
   
   for DFT-D4:
   * E. Caldeweyher, C. Bannwarth and S. Grimme, J. Chem. Phys., 2017,
     147, 034112. DOI: 10.1063/1.4993215
   * E. Caldeweyher, S. Ehlert, A. Hansen, H. Neugebauer, S. Spicher,
     C. Bannwarth and S. Grimme, J. Chem. Phys., 2019, 150, 154122.
     DOI: 10.1063/1.5090222
   * E. Caldeweyher, J.-M. Mewes, S. Ehlert and S. Grimme, Phys. Chem. Chem. Phys.
     2020, 22, 8499-8512. DOI: 10.1039/D0CP00502A
   
   for sTDA-xTB:
   * S. Grimme and C. Bannwarth, J. Chem. Phys., 2016, 145, 054103.
     DOI: 10.1063/1.4959605
   
   in the mass-spec context:
   * V. Asgeirsson, C. Bauer and S. Grimme, Chem. Sci., 2017, 8, 4879.
     DOI: 10.1039/c7sc00601b
   * J. Koopman and S. Grimme, ACS Omega 2019, 4, 12, 15120-15133.
     DOI: 10.1021/acsomega.9b02011
   
   for metadynamics refer to:
   * S. Grimme, J. Chem. Theory Comput., 2019, 155, 2847-2862
     DOI: 10.1021/acs.jctc.9b00143
   
   for SPH calculations refer to:
   * S. Spicher and S. Grimme, J. Chem. Theory Comput., 2021, 17, 1701-1714
     DOI: 10.1021/acs.jctc.0c01306
   
   for ONIOM refer to:
   * C. Plett, A. Katbashev, S. Ehlert, S. Grimme, M. Bursch,
     Phys. Chem. Chem. Phys., 2023, 25, 17860-17868. DOI: 10.1039/D3CP02178E
   
   for DIPRO refer to:
   * J. Kohn, N. Gildemeister, S. Grimme, D. Fazzi, A. Hansen,
     J. Chem. Phys., 2023, just accepted.
   
   for PTB refer to:
   * S. Grimme, M. Mueller, A. Hansen, J. Chem. Phys., 2023, 158, 124111.
     DOI: 10.1063/5.0137838
   
   with help from (in alphabetical order)
   P. Atkinson, C. Bannwarth, F. Bohle, G. Brandenburg, E. Caldeweyher
   M. Checinski, S. Dohm, S. Ehlert, S. Ehrlich, I. Gerasimov, C. Hölzer
   A. Katbashev, J. Kohn, J. Koopman, C. Lavigne, S. Lehtola, F. März, M. Müller,
   F. Musil, H. Neugebauer, J. Pisarek, C. Plett, P. Pracht, F. Pultar,
   J. Seibert, P. Shushkov, S. Spicher, M. Stahn, M. Steiner, T. Strunk,
   J. Stückrath, T. Rose, and J. Unsleber
   
 * started run on 2026/08/20 at 02:51:04.670     
   ID    Z sym.   atoms
    1    6 C      1-4, 6
    2    7 N      5, 7
    3   16 S      8
    4    8 O      9
    5    1 H      10-17

           -------------------------------------------------
          |                Calculation Setup                |
           -------------------------------------------------

          program call               : xtb ../../../structures/pathway_B_substrate.xyz --sp --gfn 2
          coordinate file            : ../../../structures/pathway_B_substrate.xyz
          omp threads                :                    16


           -------------------------------------------------
          |                 G F N 2 - x T B                 |
           -------------------------------------------------

        Reference                      10.1021/acs.jctc.8b01176
      * Hamiltonian:
        H0-scaling (s, p, d)           1.850000    2.230000    2.230000
        zeta-weighting                 0.500000
      * Dispersion:
        s8                             2.700000
        a1                             0.520000
        a2                             5.000000
        s9                             5.000000
      * Repulsion:
        kExp                           1.500000    1.000000
        rExp                           1.000000
      * Coulomb:
        alpha                          2.000000
        third order                    shell-resolved
        anisotropic                    true
        a3                             3.000000
        a5                             4.000000
        cn-shift                       1.200000
        cn-exp                         4.000000
        max-rad                        5.000000


          ...................................................
          :                      SETUP                      :
          :.................................................:
          :  # basis functions                  50          :
          :  # atomic orbitals                  49          :
          :  # shells                           27          :
          :  # electrons                        50          :
          :  max. iterations                   250          :
          :  Hamiltonian                  GFN2-xTB          :
          :  restarted?                      false          :
          :  GBSA solvation                  false          :
          :  PC potential                    false          :
          :  electronic temp.          300.0000000     K    :
          :  accuracy                    1.0000000          :
          :  -> integral cutoff          0.2500000E+02      :
          :  -> integral neglect         0.1000000E-07      :
          :  -> SCF convergence          0.1000000E-05 Eh   :
          :  -> wf. convergence          0.1000000E-03 e    :
          :  Broyden damping             0.4000000          :
          :  net charge                          0          :
          :  unpaired electrons                  0          :
          ...................................................

 iter      E             dE          RMSdq      gap      omega  full diag
   1    -28.1034488 -0.281034E+02  0.472E+00    2.77       0.0  T
   2    -28.1794933 -0.760445E-01  0.322E+00    2.31       1.0  T
   3    -28.1739460  0.554726E-02  0.178E+00    2.31       1.0  T
   4    -28.1640861  0.985995E-02  0.161E+00    2.44       1.0  T
   5    -28.1926080 -0.285219E-01  0.320E-01    2.33       1.0  T
   6    -28.1928142 -0.206254E-03  0.161E-01    2.30       1.0  T
   7    -28.1930671 -0.252877E-03  0.756E-02    2.30       1.0  T
   8    -28.1931111 -0.439715E-04  0.275E-02    2.31       1.0  T
   9    -28.1931123 -0.124757E-05  0.165E-02    2.31       1.5  T
  10    -28.1931127 -0.331574E-06  0.471E-03    2.31       5.1  T
  11    -28.1931128 -0.122937E-06  0.206E-03    2.31      11.8  T
  12    -28.1931128 -0.151945E-08  0.632E-04    2.31      38.4  T
  13    -28.1931128 -0.180811E-08  0.169E-04    2.31     143.3  T

   *** convergence criteria satisfied after 13 iterations ***

         #    Occupation            Energy/Eh            Energy/eV
      -------------------------------------------------------------
         1        2.0000           -0.7348751             -19.9970
       ...           ...                  ...                  ...
        19        2.0000           -0.4658585             -12.6767
        20        2.0000           -0.4582649             -12.4700
        21        2.0000           -0.4358413             -11.8598
        22        2.0000           -0.4176130             -11.3638
        23        2.0000           -0.3771242             -10.2621
        24        2.0000           -0.3683147             -10.0224
        25        2.0000           -0.3610295              -9.8241 (HOMO)
        26                         -0.2760617              -7.5120 (LUMO)
        27                         -0.1841751              -5.0117
        28                         -0.1779969              -4.8435
        29                         -0.1184042              -3.2219
        30                         -0.0394566              -1.0737
       ...                                ...                  ...
        49                          0.9459027              25.7393
      -------------------------------------------------------------
                  HL-Gap            0.0849678 Eh            2.3121 eV
             Fermi-level           -0.3185456 Eh           -8.6681 eV

 SCC (total)                   0 d,  0 h,  0 min,  1.637 sec
 SCC setup                      ...        0 min,  0.021 sec (  1.273%)
 Dispersion                     ...        0 min,  0.078 sec (  4.792%)
 classical contributions        ...        0 min,  0.026 sec (  1.559%)
 integral evaluation            ...        0 min,  0.037 sec (  2.282%)
 iterations                     ...        0 min,  1.377 sec ( 84.112%)
 molecular gradient             ...        0 min,  0.098 sec (  5.970%)
 printout                       ...        0 min,  0.000 sec (  0.008%)

         :::::::::::::::::::::::::::::::::::::::::::::::::::::
         ::                     SUMMARY                     ::
         :::::::::::::::::::::::::::::::::::::::::::::::::::::
         :: total energy             -27.872989509094 Eh    ::
         :: gradient norm              0.000231189139 Eh/a0 ::
         :: HOMO-LUMO gap              2.312091958777 eV    ::
         ::.................................................::
         :: SCC energy               -28.193090530698 Eh    ::
         :: -> isotropic ES            0.055310605754 Eh    ::
         :: -> anisotropic ES         -0.000031655898 Eh    ::
         :: -> anisotropic XC          0.015806512603 Eh    ::
         :: -> dispersion             -0.015159328166 Eh    ::
         :: repulsion energy           0.320101021603 Eh    ::
         :: add. restraining           0.000000000000 Eh    ::
         :: total charge              -0.000000000000 e     ::
         :::::::::::::::::::::::::::::::::::::::::::::::::::::

           -------------------------------------------------
          |                Property Printout                |
           -------------------------------------------------

    * Orbital Energies and Occupations

         #    Occupation            Energy/Eh            Energy/eV
      -------------------------------------------------------------
         1        2.0000           -0.7348751             -19.9970
       ...           ...                  ...                  ...
        13        2.0000           -0.5088732             -13.8471
        14        2.0000           -0.5058424             -13.7647
        15        2.0000           -0.5031627             -13.6918
        16        2.0000           -0.4913908             -13.3714
        17        2.0000           -0.4863238             -13.2335
        18        2.0000           -0.4723427             -12.8531
        19        2.0000           -0.4658585             -12.6767
        20        2.0000           -0.4582649             -12.4700
        21        2.0000           -0.4358413             -11.8598
        22        2.0000           -0.4176130             -11.3638
        23        2.0000           -0.3771242             -10.2621
        24        2.0000           -0.3683147             -10.0224
        25        2.0000           -0.3610295              -9.8241 (HOMO)
        26                         -0.2760617              -7.5120 (LUMO)
        27                         -0.1841751              -5.0117
        28                         -0.1779969              -4.8435
        29                         -0.1184042              -3.2219
        30                         -0.0394566              -1.0737
        31                         -0.0002343              -0.0064
        32                          0.0543511               1.4790
        33                          0.0843264               2.2946
        34                          0.1176723               3.2020
        35                          0.1313735               3.5749
        36                          0.1447915               3.9400
       ...                                ...                  ...
        49                          0.9459027              25.7393
      -------------------------------------------------------------
                  HL-Gap            0.0849678 Eh            2.3121 eV
             Fermi-level           -0.3185456 Eh           -8.6681 eV

     #   Z          covCN         q      C6AA      α(0)
     1   6 C        3.774    -0.112    22.665     6.783
     2   6 C        2.940    -0.032    28.795     8.801
     3   6 C        2.948    -0.040    28.996     8.832
     4   6 C        2.865    -0.031    28.760     8.791
     5   7 N        2.903     0.176    18.305     6.354
     6   6 C        3.720    -0.076    22.072     6.710
     7   7 N        1.931    -0.339    29.652     8.074
     8  16 S        2.913     0.475   123.183    18.680
     9   8 O        0.860    -0.518    24.194     6.595
    10   1 H        0.925     0.062     2.171     2.304
    11   1 H        0.925     0.049     2.329     2.387
    12   1 H        0.924     0.056     2.246     2.344
    13   1 H        0.925     0.041     2.441     2.443
    14   1 H        0.926     0.043     2.404     2.425
    15   1 H        0.924     0.082     1.960     2.189
    16   1 H        0.925     0.069     2.102     2.267
    17   1 H        0.925     0.095     1.828     2.114

 Mol. C6AA /au·bohr⁶  :       3963.867520
 Mol. C8AA /au·bohr⁸  :     104439.280105
 Mol. α(0) /au        :         98.093367


Wiberg/Mayer (AO) data.
largest (>0.10) Wiberg bond orders for each atom

 ---------------------------------------------------------------------------
     #   Z sym  total        # sym  WBO       # sym  WBO       # sym  WBO
 ---------------------------------------------------------------------------
     1   6 C    3.995 --     2 C    1.044    11 H    0.980    10 H    0.965
                            12 H    0.963
     2   6 C    3.979 --     3 C    1.694     1 C    1.044     8 S    0.933
                             7 N    0.130
     3   6 C    3.990 --     2 C    1.694     4 C    1.223    13 H    0.953
     4   6 C    3.956 --     5 N    1.400     3 C    1.223    14 H    0.965
                             7 N    0.257
     5   7 N    3.777 --     4 C    1.400     7 N    1.281     6 C    0.977
     6   6 C    3.959 --    16 H    0.978     5 N    0.977    17 H    0.975
                            15 H    0.966
     7   7 N    2.958 --     5 N    1.281     8 S    1.124     4 C    0.257
                             2 C    0.130
     8  16 S    3.962 --     9 O    1.784     7 N    1.124     2 C    0.933
     9   8 O    2.013 --     8 S    1.784
    10   1 H    0.996 --     1 C    0.965
    11   1 H    0.998 --     1 C    0.980
    12   1 H    0.996 --     1 C    0.963
    13   1 H    0.998 --     3 C    0.953
    14   1 H    0.998 --     4 C    0.965
    15   1 H    0.993 --     6 C    0.966
    16   1 H    0.995 --     6 C    0.978
    17   1 H    0.991 --     6 C    0.975
 ---------------------------------------------------------------------------
Note: The following floating-point exceptions are signalling: IEEE_DENORMAL
normal termination of xtb

Topologies differ in total number of bonds
Writing topology from bond orders to xtbtopo.mol

molecular dipole:
                 x           y           z       tot (Debye)
 q only:        0.734      -0.961      -1.269
   full:        0.811      -1.484      -1.036       5.042
molecular quadrupole (traceless):
                xx          xy          yy          xz          yz          zz
 q only:       13.178       1.070      -5.147       2.850      -5.792      -8.031
  q+dip:       13.933       0.794      -5.645       3.644      -5.011      -8.288
   full:       14.014       1.203      -6.347       3.353      -4.546      -7.667


           -------------------------------------------------
          | TOTAL ENERGY              -27.872989509094 Eh   |
          | GRADIENT NORM               0.000231189139 Eh/α |
          | HOMO-LUMO GAP               2.312091958777 eV   |
           -------------------------------------------------

------------------------------------------------------------------------
 * finished run on 2026/08/20 at 02:51:06.519     
------------------------------------------------------------------------
 total:
 * wall-time:     0 d,  0 h,  0 min,  1.849 sec
 *  cpu-time:     0 d,  0 h,  0 min, 16.814 sec
 * ratio c/w:     9.095 speedup
 SCF:
 * wall-time:     0 d,  0 h,  0 min,  1.637 sec
 *  cpu-time:     0 d,  0 h,  0 min, 15.575 sec
 * ratio c/w:     9.514 speedup

