17
 energy: -27.872417233846 gnorm: 0.000960844434 xtb: 6.7.1 (edcfbbe)
C           -2.38160222113899       -1.23274921871507       -0.43510370945961
C           -1.20765600929417       -0.43309906736689       -0.00724861625607
C           -1.04995329360901        0.89197046499625       -0.15655565706439
C            0.15624961866238        1.55901182786348        0.18218462250270
N            1.26974493260050        0.89464629106711        0.40980153223658
N            1.39423810112686       -0.39564795146395        0.46728152964366
C            2.52703230091654        1.61486291158169        0.52795910410393
S            0.07792507976302       -1.34234645155729        0.91974457641671
O           -0.23056302338061       -1.00628200194060        2.31365964564535
H           -2.85394972573346       -1.68806953466247        0.43515232373782
H           -2.06250904866132       -2.04038711916328       -1.09359973707746
H           -3.11422064251792       -0.61878093751872       -0.95490012946668
H           -1.84274030931774        1.50253433598357       -0.57168783298459
H            0.21012116378078        2.63420616363583        0.16257538887461
H            3.03247599464052        1.62840488233677       -0.43847222128705
H            3.15865087521292        1.08956854747226        1.24166523077181
H            2.35011292694968        2.63451613745141        0.86232182966239
