17
Properties=species:S:1:pos:R:3:forces:R:3:charge:R:1 energy:=T -27.823283988043=T gnorm:=T 0.000641801692=T xtb:=T 6.7.1=T (edcfbbe)=T energy=-758.017611413133 free_energy=-758.017611413133 dipole="-0.004198123065374625 0.22268416467097574 -0.7167402579278593" pbc="F F F"
C       -1.83167346      -1.69632567      -0.51542087       0.00358098       0.01634148      -0.00317793      -0.11524974
C       -1.16249481      -0.63732089       0.28401243      -0.00932471       0.00138389       0.00902079      -0.00051985
C       -1.45565692       0.71965926       0.29366698       0.00120283      -0.00916374      -0.01300758      -0.06666843
C       -0.39170489       1.54931605       0.57598358      -0.00373694       0.00551087       0.01106772      -0.00036961
N        0.80597634       0.95983003       0.41850807      -0.00085083      -0.00542308      -0.01388356       0.09945894
N        0.84935532      -0.36496140       0.34139840      -0.00167215       0.00003492       0.01174159      -0.30743251
C        2.01599399       1.67686426       0.10800548       0.00394059      -0.00209020       0.00089993      -0.06146262
S       -0.03441021      -1.14474066       1.59593881       0.00029572       0.01162382      -0.00364679       0.47668755
O       -0.19135891      -0.22290599       2.71687768       0.00055455      -0.00908746      -0.00002342      -0.49750702
H       -2.71160890      -2.06538958       0.01442223       0.00385911      -0.00569591       0.00512160       0.06083437
H       -1.14998466      -2.53179976      -0.65725732       0.00195207       0.00160660      -0.00410841       0.06065687
H       -2.14229333      -1.32270207      -1.48992817      -0.00280272      -0.00456117       0.00214231       0.05383302
H       -2.41031545       1.10434654      -0.01763595      -0.00104704      -0.00090294       0.00110451       0.04778192
H       -0.43582770       2.61331014       0.71875588       0.00346496       0.00111995      -0.00569996       0.04036338
H        2.65528709       1.01194362      -0.47142135       0.00202978       0.00472510      -0.00013020       0.08180585
H        2.53936133       1.95561284       1.02609973       0.00122484      -0.00419161       0.00156031       0.06741735
H        1.79181258       2.57435648      -0.46769472      -0.00267104      -0.00123052       0.00101909       0.06037053
