17
Properties=species:S:1:pos:R:3 energy:=T -20.622640541269=T gnorm:=T 0.000542523958=T xtb:=T 6.7.1=T (edcfbbe)=T pbc="F F F"
C       -2.40941582      -0.52586812      -0.27842239
C       -1.03526287      -0.03504061       0.01876179
C       -0.66591094       1.10061996       0.75884702
N        0.64597861       1.23545416       0.80517731
N        1.14535656       0.21814719       0.11421598
C        2.56201957       0.06307585      -0.03993964
C        0.17001746      -0.57396081      -0.37914467
H       -2.86425358       0.06986754      -1.07069912
H       -3.04074114      -0.44793084       0.60474005
H       -2.38109540      -1.56361054      -0.60274468
H       -1.30041789       1.80952146       1.25238859
H        2.84469960       0.11618731      -1.09324108
H        3.04341107       0.87320326       0.50346092
H        2.89295348      -0.89377933       0.36787825
H        0.39266131      -1.44588648      -0.96127834
S        6.73358252       0.00000000       0.00000000
O        5.26641748       0.00000000       0.00000000
