17
Properties=species:S:1:pos:R:3:forces:R:3:charge:R:1 energy:=T -27.828109438156=T gnorm:=T 0.000812853587=T xtb:=T 6.7.1=T (edcfbbe)=T energy=-757.9109385831922 free_energy=-757.9109385831922 dipole="0.19593756207322527 -0.6816009051352929 -0.7856819566033304" pbc="F F F"
C       -1.34511109      -1.55262607      -0.69765742       0.00250126      -0.00390752      -0.00243365      -0.11473547
C       -0.96743521      -0.41276412       0.18347598       0.00445548       0.01366589       0.00880715      -0.00259563
C       -1.49478867       0.87768873       0.17343962      -0.00384092      -0.03136824      -0.00979173      -0.09245448
C       -0.56374120       1.84449974       0.52097080       0.00401967       0.01402129       0.00474878       0.04693499
N        0.69290809       1.43983277       0.56234289      -0.00559626      -0.01342638      -0.00108118      -0.22630918
N        0.78058951       0.12930018       0.49772975      -0.00346750       0.00171824       0.00815536       0.03998464
C        1.98524730      -0.45427008      -0.03162914       0.00346601      -0.00373773      -0.00090677      -0.06414110
S       -0.11084799      -0.88588975       1.74969010       0.01046170       0.00229514      -0.01654559       0.38700834
O       -0.53774507      -0.02020933       2.82911919      -0.00520194       0.00475715       0.00530199      -0.43392890
H       -2.16304991      -2.11809005      -0.24896834       0.00080044       0.00109954      -0.00229611       0.06059801
H       -0.50344163      -2.23196303      -0.82411393      -0.00393446      -0.00070470       0.00247380       0.04910624
H       -1.65902698      -1.19908574      -1.67809026       0.00108966       0.00277606       0.00132001       0.05845012
H       -2.45051303       1.11515510      -0.25386693       0.00263854       0.01352643       0.00424975       0.03804892
H       -0.75656397       2.89693983       0.61101436      -0.00483818      -0.00167054      -0.00117135       0.03862587
H        1.81603313      -1.51463695      -0.21224587      -0.00085847       0.00232895       0.00320538       0.06184543
H        2.80578232      -0.33951281       0.68019722      -0.00137974       0.00013350      -0.00361818       0.07454257
H        2.25314029       0.03925643      -0.96614780      -0.00031529      -0.00150707      -0.00041767       0.07901961
