 Entering Gaussian System
 *********************************************
 Gaussian 98:
 frequency output generated by the xtb code
 *********************************************
                         Standard orientation:
 --------------------------------------------------------------------
  Center     Atomic     Atomic              Coordinates (Angstroms)
  Number     Number      Type              X           Y           Z
 --------------------------------------------------------------------
    1          6             0       -2.637278   -0.128568    0.444291
    2          6             0       -1.281091    0.249199   -0.031627
    3          6             0       -0.636452   -0.216978   -1.170029
    4          6             0        0.740543   -0.196488   -1.108579
    5          7             0        1.220368   -0.101796    0.142029
    6          6             0        2.551165   -0.495540    0.525300
    7          7             0        0.389881    0.271235    1.110814
    8         16             0       -0.504267    1.692406    0.716979
    9          8             0        0.203877    2.427711   -0.327294
   10          1             0       -2.833709   -1.191122    0.313249
   11          1             0       -2.742799    0.120638    1.497909
   12          1             0       -3.383853    0.437823   -0.115976
   13          1             0       -1.169063   -0.671515   -1.986367
   14          1             0        1.417762   -0.427914   -1.909949
   15          1             0        2.519905   -0.837752    1.559583
   16          1             0        3.229116    0.359947    0.463827
   17          1             0        2.915896   -1.291287   -0.124157
 --------------------------------------------------------------------
     1 basis functions        1 primitive gaussians
     1 alpha electrons        1 beta electrons

 Harmonic frequencies (cm**-1), IR intensities (km*mol⁻¹),
 Raman scattering activities (A**4/amu), Raman depolarization ratios,
 reduced masses (AMU), force constants (mDyne/A) and normal coordinates:
                      1                      2                      3
                        a                      a                      a 
 Frequencies --  -389.2603                73.0148               103.3089
 Red. masses --    14.1048                 1.3612                 6.2769
 Frc consts  --     0.0000                 0.0000                 0.0000
 IR Inten    --    18.9279                 0.7985                 2.4149
 Raman Activ --     0.0000                 0.0000                 0.0000
 Depolar     --     0.0000                 0.0000                 0.0000
 Atom AN      X      Y      Z        X      Y      Z        X      Y      Z
   1   6     0.20  -0.07   0.13     0.00  -0.06  -0.03     0.10  -0.16   0.03
   2   6     0.35  -0.19   0.34    -0.01   0.03   0.00     0.06  -0.00   0.01
   3   6     0.09   0.04  -0.08    -0.01   0.05  -0.01     0.08   0.07  -0.01
   4   6    -0.01  -0.09  -0.10    -0.01   0.03  -0.01     0.08   0.07  -0.01
   5   7    -0.03  -0.02  -0.05     0.00   0.00  -0.02     0.08   0.10  -0.00
   6   6    -0.05   0.04   0.07    -0.02  -0.08  -0.04    -0.08  -0.42   0.04
   7   7    -0.54  -0.32  -0.24     0.02   0.02  -0.00     0.07   0.13  -0.04
   8  16    -0.04   0.31  -0.01     0.02   0.01   0.05    -0.08   0.10  -0.00
   9   8     0.07   0.05  -0.04     0.00   0.04   0.05    -0.25   0.20  -0.04
  10   1     0.03  -0.01   0.03     0.22  -0.12   0.48     0.03  -0.04  -0.08
  11   1    -0.01  -0.01   0.03    -0.21   0.48  -0.15     0.06  -0.14   0.03
  12   1     0.12   0.00  -0.02    -0.02  -0.45  -0.41     0.01   0.00   0.08
  13   1    -0.05   0.20  -0.07    -0.00   0.02  -0.00     0.03   0.03  -0.01
  14   1     0.01   0.01  -0.03    -0.01   0.01  -0.01     0.02   0.01   0.00
  15   1    -0.02   0.01   0.02     0.00   0.03   0.01    -0.02   0.22   0.12
  16   1    -0.01   0.01   0.02     0.02  -0.05  -0.07     0.15  -0.28  -0.32
  17   1    -0.00   0.01   0.03    -0.04  -0.07   0.02    -0.23  -0.41   0.24
                      4                      5                      6
                        a                      a                      a 
 Frequencies --   108.8229               166.4081               215.5381
 Red. masses --     5.8012                12.7367                11.8809
 Frc consts  --     0.0000                 0.0000                 0.0000
 IR Inten    --     3.7386                 3.1472                 5.6410
 Raman Activ --     0.0000                 0.0000                 0.0000
 Depolar     --     0.0000                 0.0000                 0.0000
 Atom AN      X      Y      Z        X      Y      Z        X      Y      Z
   1   6     0.10  -0.14   0.10    -0.04   0.25  -0.18    -0.21   0.22  -0.24
   2   6     0.03   0.01   0.02     0.13  -0.04   0.04     0.10  -0.15   0.31
   3   6     0.04   0.04   0.01     0.03  -0.25   0.05     0.06   0.12   0.16
   4   6     0.05   0.04  -0.01     0.02  -0.47  -0.03     0.05   0.22   0.05
   5   7     0.08   0.09  -0.03     0.09  -0.13  -0.09     0.13   0.08   0.06
   6   6    -0.10  -0.38   0.11     0.12   0.02  -0.05     0.13  -0.07  -0.08
   7   7     0.10   0.15  -0.05     0.10   0.01  -0.12     0.06  -0.11   0.06
   8  16    -0.03   0.10  -0.05    -0.05   0.03   0.13     0.06  -0.04   0.13
   9   8    -0.23   0.15  -0.11    -0.34   0.47   0.21    -0.35  -0.30  -0.36
  10   1     0.07  -0.05   0.04    -0.08   0.08  -0.05    -0.14   0.08  -0.10
  11   1     0.04  -0.04   0.03    -0.06   0.09  -0.06    -0.19   0.08  -0.09
  12   1    -0.00  -0.07   0.04     0.06   0.12  -0.11     0.08   0.13  -0.18
  13   1     0.01   0.01   0.00    -0.03  -0.07   0.04     0.00   0.11   0.02
  14   1     0.00   0.01  -0.01    -0.01  -0.20  -0.00     0.00   0.13  -0.01
  15   1    -0.17  -0.52  -0.11     0.04  -0.00  -0.02     0.06  -0.05  -0.03
  16   1    -0.03  -0.08   0.47     0.01   0.03  -0.00     0.06  -0.04  -0.02
  17   1     0.06   0.15  -0.23     0.07   0.03  -0.02    -0.00  -0.02  -0.05
                      7                      8                      9
                        a                      a                      a 
 Frequencies --   252.7278               282.4913               335.8368
 Red. masses --    12.5965                13.0098                11.6615
 Frc consts  --     0.0000                 0.0000                 0.0000
 IR Inten    --     0.1502                 8.3918                 3.2660
 Raman Activ --     0.0000                 0.0000                 0.0000
 Depolar     --     0.0000                 0.0000                 0.0000
 Atom AN      X      Y      Z        X      Y      Z        X      Y      Z
   1   6    -0.05  -0.43  -0.31     0.11   0.08   0.17    -0.10  -0.06  -0.05
   2   6    -0.05   0.20   0.13    -0.05   0.18  -0.16    -0.04  -0.01   0.11
   3   6    -0.11   0.15   0.10     0.02   0.33  -0.18    -0.15  -0.06   0.06
   4   6    -0.13  -0.20   0.08     0.04  -0.01  -0.03    -0.12  -0.02  -0.25
   5   7    -0.10  -0.21   0.07    -0.07  -0.45   0.04     0.10   0.25  -0.37
   6   6     0.02   0.04  -0.10     0.04   0.11   0.24    -0.17   0.12   0.40
   7   7     0.03   0.09   0.07     0.02  -0.13  -0.03     0.17   0.01  -0.24
   8  16     0.24   0.30   0.14     0.19  -0.15   0.06     0.25  -0.09   0.16
   9   8     0.03   0.03  -0.13    -0.42   0.04  -0.24     0.03  -0.09  -0.01
  10   1     0.14  -0.14  -0.24     0.05   0.01   0.10    -0.02  -0.02  -0.05
  11   1    -0.14  -0.27  -0.07     0.12   0.05   0.05    -0.08  -0.04  -0.02
  12   1    -0.04  -0.16  -0.09    -0.04  -0.02   0.10    -0.00  -0.01  -0.04
  13   1    -0.07   0.07   0.04     0.01   0.16  -0.09    -0.09  -0.03   0.05
  14   1    -0.06  -0.12   0.03     0.02  -0.01  -0.00    -0.08  -0.02  -0.10
  15   1     0.07  -0.00  -0.03     0.01   0.10   0.09    -0.28   0.13   0.14
  16   1    -0.04   0.05  -0.05    -0.08   0.10   0.04    -0.00   0.01   0.19
  17   1     0.02   0.04  -0.05     0.12   0.03   0.13     0.05  -0.03   0.26
                     10                     11                     12
                        a                      a                      a 
 Frequencies --   424.1404               474.5972               494.2859
 Red. masses --    15.8983                15.7857                11.5671
 Frc consts  --     0.0000                 0.0000                 0.0000
 IR Inten    --     8.6679                16.0162                 0.1826
 Raman Activ --     0.0000                 0.0000                 0.0000
 Depolar     --     0.0000                 0.0000                 0.0000
 Atom AN      X      Y      Z        X      Y      Z        X      Y      Z
   1   6    -0.22  -0.10   0.03     0.10   0.02  -0.06    -0.35  -0.07   0.13
   2   6    -0.08  -0.24   0.16    -0.06   0.22  -0.25    -0.36   0.15  -0.07
   3   6    -0.08  -0.13   0.15     0.03  -0.41   0.08     0.04   0.14   0.09
   4   6    -0.04   0.39  -0.00     0.03   0.14   0.05     0.05  -0.18   0.12
   5   7    -0.04  -0.30   0.07    -0.07   0.25   0.07     0.37   0.22   0.01
   6   6     0.04  -0.01   0.08    -0.13   0.03  -0.09     0.37  -0.07   0.05
   7   7     0.01  -0.09  -0.00    -0.32  -0.29   0.04    -0.21  -0.24  -0.22
   8  16     0.24  -0.07  -0.35     0.41   0.01   0.19     0.01   0.01  -0.09
   9   8     0.07   0.50   0.06    -0.22   0.10  -0.15     0.05   0.06   0.01
  10   1    -0.09  -0.02  -0.01     0.09  -0.01  -0.01    -0.05  -0.03   0.05
  11   1    -0.11  -0.04   0.00     0.07  -0.00  -0.01    -0.05  -0.03   0.05
  12   1    -0.02  -0.00  -0.03    -0.04  -0.04   0.03    -0.17  -0.06   0.09
  13   1     0.01  -0.03   0.02     0.04  -0.24   0.07     0.05   0.13  -0.05
  14   1    -0.02   0.25  -0.04     0.05   0.06   0.04    -0.04  -0.06  -0.01
  15   1     0.02   0.02   0.03    -0.02  -0.02  -0.03     0.10  -0.04   0.01
  16   1    -0.03   0.03   0.01     0.00  -0.02  -0.03     0.14  -0.05   0.01
  17   1     0.05   0.00   0.04    -0.09   0.01  -0.05     0.07  -0.02  -0.00
                     13                     14                     15
                        a                      a                      a 
 Frequencies --   561.9483               640.6554               700.2164
 Red. masses --    18.0043                14.3016                13.8384
 Frc consts  --     0.0000                 0.0000                 0.0000
 IR Inten    --    31.0668                 7.5722                16.1004
 Raman Activ --     0.0000                 0.0000                 0.0000
 Depolar     --     0.0000                 0.0000                 0.0000
 Atom AN      X      Y      Z        X      Y      Z        X      Y      Z
   1   6     0.03  -0.02   0.00    -0.34  -0.13   0.11     0.06  -0.02  -0.05
   2   6     0.07  -0.16   0.11    -0.13  -0.39  -0.14     0.03  -0.22  -0.16
   3   6    -0.05   0.29  -0.17     0.20  -0.12  -0.24    -0.33  -0.04  -0.40
   4   6    -0.12  -0.27   0.18     0.19  -0.10  -0.07    -0.30  -0.03   0.09
   5   7    -0.07   0.40   0.10    -0.11  -0.02   0.03     0.11   0.10   0.01
   6   6    -0.19   0.09  -0.07    -0.15   0.04  -0.06     0.25  -0.06   0.11
   7   7    -0.06   0.03   0.24     0.02   0.24  -0.04     0.20  -0.31   0.34
   8  16     0.30  -0.40  -0.23     0.23   0.25   0.30    -0.05   0.33   0.06
   9   8    -0.05   0.21   0.00     0.01  -0.03  -0.05     0.00   0.05  -0.07
  10   1    -0.04   0.00  -0.01    -0.24  -0.02   0.12    -0.05   0.00   0.03
  11   1    -0.01   0.01  -0.01     0.00   0.05   0.02     0.07   0.03  -0.02
  12   1     0.05   0.03  -0.03    -0.07   0.02   0.05     0.03   0.02  -0.00
  13   1    -0.02   0.15  -0.08     0.12   0.15  -0.21    -0.05  -0.11  -0.09
  14   1    -0.00  -0.11   0.09     0.12   0.02   0.02    -0.06   0.17  -0.01
  15   1    -0.04  -0.00  -0.03    -0.00  -0.00  -0.02    -0.00  -0.00   0.03
  16   1    -0.00  -0.01  -0.02    -0.05   0.02  -0.03     0.09  -0.03   0.06
  17   1    -0.12   0.02  -0.05    -0.05   0.02  -0.04     0.08  -0.03   0.06
                     16                     17                     18
                        a                      a                      a 
 Frequencies --   708.5364               771.2038               796.0697
 Red. masses --     6.3435                11.7679                 3.5283
 Frc consts  --     0.0000                 0.0000                 0.0000
 IR Inten    --    15.0192                44.6706                 1.2189
 Raman Activ --     0.0000                 0.0000                 0.0000
 Depolar     --     0.0000                 0.0000                 0.0000
 Atom AN      X      Y      Z        X      Y      Z        X      Y      Z
   1   6    -0.15  -0.05   0.06    -0.08   0.02   0.02     0.01  -0.02  -0.00
   2   6     0.00  -0.12   0.06    -0.04   0.14   0.02     0.00  -0.06  -0.02
   3   6     0.11   0.41  -0.03     0.19  -0.11   0.23    -0.05  -0.14  -0.03
   4   6     0.21  -0.01  -0.06     0.17  -0.12  -0.10    -0.06   0.42  -0.02
   5   7    -0.05   0.00  -0.06    -0.03   0.04  -0.13     0.02   0.00  -0.00
   6   6    -0.14   0.03  -0.05    -0.27   0.07  -0.10     0.06  -0.01   0.01
   7   7     0.08  -0.29   0.04     0.33  -0.44   0.33     0.03  -0.08   0.05
   8  16    -0.04   0.14  -0.03    -0.17   0.14  -0.13     0.00   0.03  -0.01
   9   8     0.02   0.05  -0.04     0.03   0.07  -0.04    -0.00   0.02  -0.01
  10   1    -0.08  -0.01   0.04     0.07  -0.01  -0.00    -0.03   0.00   0.01
  11   1    -0.02   0.01   0.02     0.00  -0.03   0.02     0.00   0.01  -0.00
  12   1    -0.03   0.00   0.01    -0.10  -0.06   0.05     0.02   0.01  -0.01
  13   1     0.12  -0.61   0.33    -0.01   0.37  -0.12     0.02   0.18  -0.15
  14   1     0.05  -0.24   0.05     0.07   0.06  -0.03    -0.11  -0.82   0.18
  15   1    -0.07   0.02  -0.01    -0.15   0.05  -0.02    -0.00   0.00   0.00
  16   1    -0.05   0.01  -0.00    -0.07   0.02   0.01     0.01  -0.00   0.01
  17   1    -0.01   0.00   0.00    -0.02   0.00   0.02     0.04  -0.01   0.02
                     19                     20                     21
                        a                      a                      a 
 Frequencies --   953.8459               978.4967              1021.0922
 Red. masses --     9.1367                 6.6613                 5.0269
 Frc consts  --     0.0000                 0.0000                 0.0000
 IR Inten    --     6.9154                 4.2266                41.4534
 Raman Activ --     0.0000                 0.0000                 0.0000
 Depolar     --     0.0000                 0.0000                 0.0000
 Atom AN      X      Y      Z        X      Y      Z        X      Y      Z
   1   6    -0.22   0.06   0.28     0.01   0.06   0.29     0.22  -0.31   0.15
   2   6     0.14   0.21   0.06     0.02   0.11  -0.03    -0.22   0.15  -0.17
   3   6     0.03  -0.12  -0.29    -0.04  -0.08  -0.18     0.06   0.04   0.16
   4   6     0.14  -0.01  -0.41    -0.05   0.03   0.39     0.03  -0.04  -0.11
   5   7    -0.10   0.04  -0.01     0.12  -0.05   0.02    -0.01  -0.02  -0.05
   6   6     0.20  -0.04   0.07    -0.19   0.04  -0.10     0.05   0.01  -0.03
   7   7    -0.13   0.10   0.35     0.18  -0.09  -0.28    -0.08  -0.00   0.17
   8  16     0.01  -0.08  -0.04    -0.05   0.01   0.02    -0.00   0.02  -0.02
   9   8    -0.03  -0.01   0.01     0.01  -0.01  -0.00     0.00   0.01  -0.00
  10   1     0.13   0.01  -0.15     0.11   0.03  -0.20    -0.44   0.02   0.01
  11   1    -0.39  -0.16   0.08    -0.43  -0.13   0.06    -0.15   0.15  -0.04
  12   1    -0.00  -0.06  -0.08     0.18   0.00  -0.18     0.50   0.27  -0.22
  13   1    -0.15  -0.06   0.03     0.30  -0.09  -0.21     0.01   0.04   0.03
  14   1     0.16  -0.03  -0.01     0.04   0.06   0.14    -0.08   0.01  -0.11
  15   1     0.08  -0.04   0.01    -0.11   0.04  -0.01    -0.06   0.01  -0.01
  16   1     0.09  -0.04   0.02    -0.07   0.03   0.00     0.04  -0.02   0.03
  17   1     0.02  -0.02   0.01    -0.01   0.00   0.01     0.03  -0.02   0.03
                     22                     23                     24
                        a                      a                      a 
 Frequencies --  1061.8543              1084.9828              1090.5774
 Red. masses --     5.2235                 3.3258                 4.3366
 Frc consts  --     0.0000                 0.0000                 0.0000
 IR Inten    --     0.8154                18.3939                 1.4897
 Raman Activ --     0.0000                 0.0000                 0.0000
 Depolar     --     0.0000                 0.0000                 0.0000
 Atom AN      X      Y      Z        X      Y      Z        X      Y      Z
   1   6    -0.06   0.02  -0.05     0.08   0.15   0.01    -0.07  -0.07  -0.00
   2   6     0.05   0.01   0.05    -0.10  -0.16  -0.01     0.07   0.09  -0.01
   3   6     0.08   0.01  -0.00     0.11   0.06   0.11    -0.05  -0.03  -0.09
   4   6    -0.04   0.00   0.11    -0.07  -0.05  -0.15     0.03   0.03   0.05
   5   7     0.06  -0.15  -0.08     0.01  -0.08  -0.04     0.07  -0.21   0.10
   6   6     0.14   0.06  -0.38     0.01   0.14   0.10    -0.02   0.39   0.05
   7   7    -0.23   0.16   0.18    -0.08   0.04   0.17     0.11  -0.06  -0.12
   8  16     0.04  -0.01  -0.02     0.02   0.02   0.02    -0.02  -0.00  -0.01
   9   8    -0.03  -0.03   0.04    -0.01   0.00  -0.01     0.00  -0.00   0.01
  10   1     0.03  -0.01   0.03     0.20   0.01  -0.09    -0.09  -0.01   0.04
  11   1     0.07  -0.00  -0.00    -0.05  -0.07   0.02     0.02   0.03  -0.01
  12   1    -0.09  -0.03   0.05    -0.04  -0.06  -0.02    -0.00   0.02   0.02
  13   1     0.12  -0.04  -0.04     0.47  -0.09  -0.20    -0.23   0.04   0.09
  14   1     0.01   0.02   0.05    -0.45  -0.04  -0.39     0.08  -0.01   0.07
  15   1    -0.59   0.13  -0.07     0.05  -0.09  -0.01    -0.14  -0.17  -0.07
  16   1     0.19  -0.08   0.26     0.17  -0.11  -0.01     0.46  -0.27   0.09
  17   1     0.24  -0.16   0.23    -0.23   0.01  -0.08    -0.52  -0.04  -0.12
                     25                     26                     27
                        a                      a                      a 
 Frequencies --  1131.5454              1157.9332              1187.2482
 Red. masses --    19.5592                10.1866                 5.2407
 Frc consts  --     0.0000                 0.0000                 0.0000
 IR Inten    --   319.2447                24.0321                 3.5470
 Raman Activ --     0.0000                 0.0000                 0.0000
 Depolar     --     0.0000                 0.0000                 0.0000
 Atom AN      X      Y      Z        X      Y      Z        X      Y      Z
   1   6    -0.09  -0.08  -0.03     0.27   0.22   0.05    -0.07   0.04   0.09
   2   6     0.12   0.15   0.07    -0.43  -0.41  -0.13     0.09  -0.11  -0.22
   3   6    -0.00  -0.04  -0.05    -0.07   0.10   0.15     0.14  -0.01  -0.13
   4   6    -0.04   0.01   0.00     0.12  -0.03  -0.06     0.09   0.06   0.16
   5   7     0.05  -0.00   0.00    -0.13   0.02   0.02     0.32  -0.04   0.17
   6   6    -0.06  -0.01   0.03     0.10   0.03  -0.03    -0.22  -0.02  -0.11
   7   7     0.03  -0.02   0.01     0.00  -0.02  -0.07    -0.05   0.03   0.03
   8  16     0.25   0.25  -0.40     0.13   0.17  -0.11     0.02   0.04  -0.00
   9   8    -0.37  -0.39   0.55    -0.13  -0.12   0.19    -0.03  -0.03   0.03
  10   1    -0.11  -0.01   0.06     0.29   0.03  -0.18     0.05   0.00  -0.05
  11   1     0.06   0.03  -0.01    -0.11  -0.08   0.02    -0.11  -0.06   0.03
  12   1    -0.02   0.02   0.03     0.08  -0.04  -0.10    -0.02  -0.04  -0.03
  13   1     0.11  -0.04  -0.07    -0.20   0.10   0.11    -0.47   0.07   0.26
  14   1    -0.04   0.01  -0.03     0.21  -0.02   0.13    -0.43  -0.04  -0.32
  15   1     0.06  -0.00   0.01    -0.07  -0.01  -0.01    -0.07   0.08   0.00
  16   1    -0.04   0.02  -0.04     0.08  -0.04   0.05    -0.12   0.06  -0.01
  17   1    -0.02   0.03  -0.03    -0.00  -0.03   0.03     0.07   0.02   0.01
                     28                     29                     30
                        a                      a                      a 
 Frequencies --  1294.5988              1382.9641              1387.4947
 Red. masses --    11.9237                10.2220                 3.0987
 Frc consts  --     0.0000                 0.0000                 0.0000
 IR Inten    --    35.2336                19.6057                10.2511
 Raman Activ --     0.0000                 0.0000                 0.0000
 Depolar     --     0.0000                 0.0000                 0.0000
 Atom AN      X      Y      Z        X      Y      Z        X      Y      Z
   1   6    -0.09  -0.02   0.07    -0.11   0.02   0.09     0.40   0.07  -0.12
   2   6     0.23   0.01  -0.17     0.16  -0.10  -0.26     0.00  -0.03  -0.04
   3   6     0.22   0.02   0.08     0.28   0.07   0.16     0.04   0.02   0.03
   4   6    -0.08  -0.01   0.15    -0.33   0.04   0.20    -0.06   0.00   0.00
   5   7    -0.66   0.19   0.09     0.08  -0.11  -0.51     0.03  -0.02  -0.05
   6   6     0.33  -0.05   0.01     0.10  -0.04   0.20    -0.03   0.01   0.01
   7   7     0.20  -0.11  -0.24    -0.13   0.07   0.18    -0.02   0.01   0.02
   8  16     0.01   0.01  -0.02     0.02   0.02   0.00     0.00   0.00  -0.00
   9   8    -0.02  -0.02   0.02    -0.02  -0.01   0.01    -0.00  -0.00   0.00
  10   1    -0.06   0.00   0.00     0.02   0.00  -0.04    -0.43   0.07   0.13
  11   1    -0.08  -0.03   0.02     0.00  -0.05   0.03    -0.54  -0.07  -0.05
  12   1    -0.02  -0.03  -0.00     0.01  -0.04  -0.07    -0.38  -0.19   0.34
  13   1    -0.04   0.06   0.07    -0.05   0.04   0.13     0.00   0.00   0.02
  14   1    -0.23   0.01  -0.12     0.10   0.03   0.22     0.03   0.00   0.04
  15   1    -0.10  -0.01  -0.00    -0.08  -0.03   0.02     0.05  -0.02  -0.01
  16   1     0.06  -0.01   0.07    -0.08   0.05  -0.21     0.02  -0.02  -0.00
  17   1     0.03  -0.06   0.05    -0.16   0.10  -0.19     0.02   0.00   0.02
                     31                     32                     33
                        a                      a                      a 
 Frequencies --  1394.2026              1448.0158              1456.2357
 Red. masses --     3.6294                 1.6348                 3.6034
 Frc consts  --     0.0000                 0.0000                 0.0000
 IR Inten    --     2.0559                 8.3436                 1.1365
 Raman Activ --     0.0000                 0.0000                 0.0000
 Depolar     --     0.0000                 0.0000                 0.0000
 Atom AN      X      Y      Z        X      Y      Z        X      Y      Z
   1   6    -0.08   0.01   0.05     0.01  -0.01  -0.01     0.00  -0.14  -0.13
   2   6     0.09  -0.04  -0.13    -0.03   0.00   0.03    -0.16   0.02   0.15
   3   6     0.13   0.04   0.08     0.01  -0.01  -0.03     0.13  -0.06  -0.17
   4   6    -0.18   0.01   0.05     0.02   0.01   0.03     0.07   0.03   0.18
   5   7    -0.02  -0.01  -0.12     0.05   0.01  -0.04    -0.10  -0.01  -0.19
   6   6    -0.30   0.14  -0.09     0.13   0.17  -0.03    -0.01   0.01   0.09
   7   7    -0.00   0.00   0.02    -0.01   0.01   0.02     0.00   0.00   0.03
   8  16     0.00   0.01   0.00     0.00   0.00  -0.00     0.00   0.00  -0.01
   9   8    -0.00  -0.00   0.00    -0.00  -0.00   0.00    -0.00  -0.00   0.00
  10   1     0.03  -0.00  -0.03     0.02  -0.00   0.00     0.38  -0.10   0.14
  11   1     0.04  -0.02   0.02    -0.01   0.02  -0.01    -0.25   0.25  -0.10
  12   1     0.03  -0.01  -0.06     0.00   0.02   0.02     0.06   0.46   0.38
  13   1    -0.01   0.01   0.05    -0.01  -0.01   0.00    -0.07  -0.02   0.03
  14   1     0.03   0.02   0.08    -0.02  -0.00  -0.01    -0.07   0.00  -0.03
  15   1     0.53  -0.20  -0.07    -0.02  -0.54  -0.19    -0.02  -0.09  -0.02
  16   1     0.29  -0.23   0.16    -0.36   0.29  -0.09     0.10  -0.09  -0.18
  17   1     0.35  -0.10   0.35    -0.23  -0.42   0.40     0.14   0.08  -0.01
                     34                     35                     36
                        a                      a                      a 
 Frequencies --  1466.7328              1472.7072              1484.8894
 Red. masses --     2.9539                 1.7828                 8.7260
 Frc consts  --     0.0000                 0.0000                 0.0000
 IR Inten    --     9.4128                 5.0706                 9.9749
 Raman Activ --     0.0000                 0.0000                 0.0000
 Depolar     --     0.0000                 0.0000                 0.0000
 Atom AN      X      Y      Z        X      Y      Z        X      Y      Z
   1   6     0.06   0.05   0.05    -0.04   0.14  -0.16     0.10   0.08  -0.05
   2   6    -0.06   0.04   0.12     0.03   0.00  -0.08    -0.24   0.07   0.28
   3   6    -0.11  -0.04  -0.09    -0.09   0.02   0.06     0.07  -0.10  -0.25
   4   6     0.23   0.01   0.14     0.05  -0.01  -0.02     0.26   0.05   0.36
   5   7    -0.09   0.01  -0.09     0.00   0.01   0.03    -0.16  -0.03  -0.43
   6   6    -0.04   0.07   0.16    -0.01   0.02   0.03     0.06  -0.05  -0.02
   7   7    -0.01   0.00   0.01    -0.00  -0.00  -0.00    -0.04   0.02   0.08
   8  16     0.00  -0.00  -0.00     0.00  -0.00  -0.00     0.01  -0.00  -0.01
   9   8     0.00   0.00  -0.00    -0.00  -0.00   0.00    -0.00   0.00   0.00
  10   1    -0.20   0.06  -0.17     0.04  -0.08   0.64    -0.12   0.03   0.07
  11   1     0.17  -0.00   0.02    -0.06  -0.61   0.13     0.13  -0.16   0.04
  12   1    -0.06  -0.25  -0.16     0.19   0.15  -0.12     0.02  -0.12  -0.14
  13   1    -0.03  -0.00  -0.03     0.02   0.01  -0.02    -0.11  -0.02   0.01
  14   1    -0.07  -0.00  -0.07     0.01  -0.00  -0.01    -0.11   0.00  -0.06
  15   1    -0.22  -0.31  -0.10    -0.07  -0.08  -0.03     0.25   0.14   0.06
  16   1     0.15  -0.15  -0.53     0.03  -0.03  -0.13    -0.01   0.03   0.29
  17   1     0.34   0.16   0.02     0.08   0.03   0.01    -0.17  -0.07  -0.02
                     37                     38                     39
                        a                      a                      a 
 Frequencies --  1499.2443              2965.0001              2978.4130
 Red. masses --    11.3656                 1.8186                 1.7662
 Frc consts  --     0.0000                 0.0000                 0.0000
 IR Inten    --    50.6441                16.7694                14.1047
 Raman Activ --     0.0000                 0.0000                 0.0000
 Depolar     --     0.0000                 0.0000                 0.0000
 Atom AN      X      Y      Z        X      Y      Z        X      Y      Z
   1   6    -0.09  -0.07   0.04     0.00  -0.00   0.00     0.16  -0.15   0.14
   2   6     0.35  -0.08  -0.28     0.00   0.00   0.00     0.01  -0.00   0.00
   3   6    -0.56   0.09   0.25     0.00  -0.00  -0.00    -0.00  -0.00   0.00
   4   6     0.46  -0.01   0.18    -0.00   0.00  -0.00     0.00   0.00   0.00
   5   7    -0.05  -0.01  -0.23     0.01  -0.00   0.00    -0.00  -0.00  -0.00
   6   6     0.01  -0.00  -0.01     0.13   0.23  -0.03    -0.00  -0.00   0.00
   7   7    -0.11   0.04   0.06    -0.00   0.00   0.00    -0.00   0.00  -0.00
   8  16     0.01   0.00   0.00     0.00   0.00  -0.00     0.00  -0.00   0.00
   9   8    -0.01  -0.01   0.00    -0.00  -0.00   0.00    -0.00   0.00  -0.00
  10   1     0.05  -0.02  -0.03     0.00   0.00   0.00     0.04   0.05   0.03
  11   1    -0.10   0.09  -0.02     0.00  -0.00   0.00     0.03  -0.04  -0.04
  12   1    -0.03   0.06   0.10    -0.01   0.01  -0.01    -0.65   0.50  -0.50
  13   1     0.05   0.06  -0.09     0.00   0.00   0.00     0.00   0.00   0.00
  14   1    -0.01  -0.02  -0.07     0.00  -0.00  -0.00     0.00  -0.00  -0.00
  15   1     0.08   0.02   0.01     0.01  -0.00   0.12    -0.00   0.00  -0.00
  16   1     0.01  -0.00   0.07    -0.58  -0.75   0.06     0.01   0.01  -0.00
  17   1    -0.04  -0.03   0.01     0.06  -0.06  -0.09    -0.00  -0.00  -0.00
                     40                     41                     42
                        a                      a                      a 
 Frequencies --  3005.2883              3021.6603              3023.6126
 Red. masses --     1.5240                 1.7381                 1.7843
 Frc consts  --     0.0000                 0.0000                 0.0000
 IR Inten    --    21.8372                23.0031                 4.2556
 Raman Activ --     0.0000                 0.0000                 0.0000
 Depolar     --     0.0000                 0.0000                 0.0000
 Atom AN      X      Y      Z        X      Y      Z        X      Y      Z
   1   6     0.00   0.00   0.00     0.05   0.24   0.07    -0.00  -0.00  -0.00
   2   6    -0.00   0.00   0.00     0.01   0.01   0.00     0.00  -0.00   0.00
   3   6     0.00  -0.00  -0.00    -0.00  -0.00  -0.00    -0.00   0.00  -0.00
   4   6    -0.00   0.00   0.00     0.00   0.00   0.00     0.00  -0.00  -0.00
   5   7     0.01  -0.01  -0.00    -0.00  -0.00   0.00     0.01  -0.00   0.01
   6   6     0.10  -0.16  -0.10    -0.00   0.00   0.00    -0.01  -0.02   0.26
   7   7    -0.00  -0.00   0.00     0.00  -0.00   0.00     0.00   0.00  -0.00
   8  16     0.00   0.00  -0.00    -0.00  -0.00  -0.00    -0.00   0.00   0.00
   9   8    -0.00  -0.00   0.00     0.00   0.00   0.00     0.00   0.00  -0.00
  10   1    -0.00  -0.01  -0.00    -0.16  -0.94  -0.12     0.00   0.01   0.00
  11   1     0.00   0.00   0.00     0.01   0.01  -0.10    -0.00   0.00   0.02
  12   1    -0.00   0.00  -0.00    -0.04   0.07  -0.02     0.00  -0.00  -0.00
  13   1     0.00   0.00   0.00     0.01   0.01   0.01    -0.00   0.00  -0.00
  14   1     0.01  -0.00  -0.01     0.00  -0.00  -0.00    -0.01   0.00   0.01
  15   1     0.01   0.04  -0.20     0.00   0.00  -0.01     0.03   0.30  -0.89
  16   1    -0.08  -0.14  -0.01    -0.00  -0.00   0.00    -0.06  -0.08   0.04
  17   1    -0.30   0.68   0.57     0.00  -0.01  -0.01     0.06  -0.16  -0.10
                     43                     44                     45
                        a                      a                      a 
 Frequencies --  3037.9878              3116.8065              3138.9890
 Red. masses --     1.6311                 1.8157                 1.8780
 Frc consts  --     0.0000                 0.0000                 0.0000
 IR Inten    --     8.2802                 7.6797                14.5734
 Raman Activ --     0.0000                 0.0000                 0.0000
 Depolar     --     0.0000                 0.0000                 0.0000
 Atom AN      X      Y      Z        X      Y      Z        X      Y      Z
   1   6     0.04  -0.04  -0.23    -0.00  -0.00  -0.00     0.00  -0.00  -0.00
   2   6     0.00  -0.00  -0.01    -0.01  -0.00  -0.00    -0.00   0.00   0.00
   3   6     0.00   0.00   0.00    -0.13  -0.11  -0.20    -0.04  -0.03  -0.06
   4   6    -0.00   0.00   0.00    -0.04   0.01   0.04     0.17  -0.06  -0.20
   5   7    -0.00   0.00  -0.00    -0.00   0.00   0.00     0.01  -0.00  -0.00
   6   6    -0.00   0.00  -0.00    -0.00   0.00   0.00     0.00  -0.00  -0.00
   7   7    -0.00  -0.00   0.00     0.00  -0.00   0.00    -0.00   0.00   0.00
   8  16     0.00   0.00  -0.00     0.00   0.00  -0.00    -0.00   0.00  -0.00
   9   8    -0.00  -0.00   0.00     0.00   0.00   0.00    -0.00  -0.00   0.00
  10   1    -0.02  -0.11  -0.04     0.00   0.01   0.00    -0.00  -0.00  -0.00
  11   1    -0.08   0.22   0.93    -0.00   0.00   0.01     0.00   0.00   0.00
  12   1    -0.04   0.03  -0.07     0.00  -0.00   0.00     0.00  -0.00  -0.00
  13   1    -0.00  -0.00  -0.00     0.46   0.39   0.71     0.11   0.09   0.17
  14   1     0.00  -0.00  -0.00     0.14  -0.05  -0.17    -0.59   0.20   0.70
  15   1    -0.00  -0.00   0.01    -0.00   0.00  -0.00    -0.00  -0.00   0.01
  16   1     0.00   0.00  -0.00     0.00   0.00   0.00    -0.00  -0.00  -0.00
  17   1    -0.00   0.00   0.00     0.00  -0.00  -0.00    -0.01   0.01   0.01
