15
 energy: -20.623677073011 gnorm: 0.000823715822 xtb: 6.7.1 (edcfbbe)
C            2.45480806463375       -0.55248140530638        0.03209546341098
C            1.05836175524070       -0.04058960628785        0.03709717081322
N            0.01942993818658       -0.84773853440652       -0.09842202048357
N           -1.06645892439777       -0.07995445946752       -0.05068407877313
C           -0.74832933135375        1.21958595018701        0.11455446083003
C            0.62283563346116        1.29065258191019        0.17669147337742
C           -2.37347211785996       -0.65571147794072       -0.17178182533979
H            3.01857064309635       -0.11049745095942       -0.78892553036809
H            2.95659409196263       -0.29612919587100        0.96462769960863
H            2.44370988830214       -1.63259724358691       -0.08314355255096
H           -1.50068743066410        1.98061700354961        0.17499787396740
H            1.22887793696068        2.16430314097742        0.30364736342048
H           -2.25126033443692       -1.73373725056634       -0.25925945785536
H           -2.97902450616684       -0.42921986989818        0.70897961941800
H           -2.88395531696472       -0.27650220233358       -1.06047466947520
