      -----------------------------------------------------------      
     |                   =====================                   |     
     |                           x T B                           |     
     |                   =====================                   |     
     |                         S. Grimme                         |     
     |          Mulliken Center for Theoretical Chemistry        |     
     |                    University of Bonn                     |     
      -----------------------------------------------------------      

   * xtb version 6.7.1 (edcfbbe) compiled by 'conda@3ef47c1a292c' on 2024-11-25

   xtb is free software: you can redistribute it and/or modify it under
   the terms of the GNU Lesser General Public License as published by
   the Free Software Foundation, either version 3 of the License, or
   (at your option) any later version.
   
   xtb is distributed in the hope that it will be useful,
   but WITHOUT ANY WARRANTY; without even the implied warranty of
   MERCHANTABILITY or FITNESS FOR A PARTICULAR PURPOSE.  See the
   GNU Lesser General Public License for more details.
   
   Cite this work as:
   * C. Bannwarth, E. Caldeweyher, S. Ehlert, A. Hansen, P. Pracht,
     J. Seibert, S. Spicher, S. Grimme, WIREs Comput. Mol. Sci., 2020, 11,
     e01493. DOI: 10.1002/wcms.1493
   
   for GFN2-xTB:
   * C. Bannwarth, S. Ehlert and S. Grimme., J. Chem. Theory Comput., 2019,
     15, 1652-1671. DOI: 10.1021/acs.jctc.8b01176
   for GFN1-xTB:
   * S. Grimme, C. Bannwarth, P. Shushkov, J. Chem. Theory Comput., 2017,
     13, 1989-2009. DOI: 10.1021/acs.jctc.7b00118
   for GFN0-xTB:
   * P. Pracht, E. Caldeweyher, S. Ehlert, S. Grimme, ChemRxiv, 2019, preprint.
     DOI: 10.26434/chemrxiv.8326202.v1
   for GFN-FF:
   * S. Spicher and S. Grimme, Angew. Chem. Int. Ed., 2020, 59, 15665-15673.
     DOI: 10.1002/anie.202004239
   
   for ALPB and GBSA implicit solvation:
   * S. Ehlert, M. Stahn, S. Spicher, S. Grimme, J. Chem. Theory Comput.,
     2021, 17, 4250-4261. DOI: 10.1021/acs.jctc.1c00471
   
   for ddCOSMO and CPCM-X implicit solvation:
   * M. Stahn, S. Ehlert, S. Grimme, J. Phys. Chem. A,
     2023, XX, XXXX-XXXX. DOI: 10.1021/acs.jpca.3c04382
   
   for DFT-D4:
   * E. Caldeweyher, C. Bannwarth and S. Grimme, J. Chem. Phys., 2017,
     147, 034112. DOI: 10.1063/1.4993215
   * E. Caldeweyher, S. Ehlert, A. Hansen, H. Neugebauer, S. Spicher,
     C. Bannwarth and S. Grimme, J. Chem. Phys., 2019, 150, 154122.
     DOI: 10.1063/1.5090222
   * E. Caldeweyher, J.-M. Mewes, S. Ehlert and S. Grimme, Phys. Chem. Chem. Phys.
     2020, 22, 8499-8512. DOI: 10.1039/D0CP00502A
   
   for sTDA-xTB:
   * S. Grimme and C. Bannwarth, J. Chem. Phys., 2016, 145, 054103.
     DOI: 10.1063/1.4959605
   
   in the mass-spec context:
   * V. Asgeirsson, C. Bauer and S. Grimme, Chem. Sci., 2017, 8, 4879.
     DOI: 10.1039/c7sc00601b
   * J. Koopman and S. Grimme, ACS Omega 2019, 4, 12, 15120-15133.
     DOI: 10.1021/acsomega.9b02011
   
   for metadynamics refer to:
   * S. Grimme, J. Chem. Theory Comput., 2019, 155, 2847-2862
     DOI: 10.1021/acs.jctc.9b00143
   
   for SPH calculations refer to:
   * S. Spicher and S. Grimme, J. Chem. Theory Comput., 2021, 17, 1701-1714
     DOI: 10.1021/acs.jctc.0c01306
   
   for ONIOM refer to:
   * C. Plett, A. Katbashev, S. Ehlert, S. Grimme, M. Bursch,
     Phys. Chem. Chem. Phys., 2023, 25, 17860-17868. DOI: 10.1039/D3CP02178E
   
   for DIPRO refer to:
   * J. Kohn, N. Gildemeister, S. Grimme, D. Fazzi, A. Hansen,
     J. Chem. Phys., 2023, just accepted.
   
   for PTB refer to:
   * S. Grimme, M. Mueller, A. Hansen, J. Chem. Phys., 2023, 158, 124111.
     DOI: 10.1063/5.0137838
   
   with help from (in alphabetical order)
   P. Atkinson, C. Bannwarth, F. Bohle, G. Brandenburg, E. Caldeweyher
   M. Checinski, S. Dohm, S. Ehlert, S. Ehrlich, I. Gerasimov, C. Hölzer
   A. Katbashev, J. Kohn, J. Koopman, C. Lavigne, S. Lehtola, F. März, M. Müller,
   F. Musil, H. Neugebauer, J. Pisarek, C. Plett, P. Pracht, F. Pultar,
   J. Seibert, P. Shushkov, S. Spicher, M. Stahn, M. Steiner, T. Strunk,
   J. Stückrath, T. Rose, and J. Unsleber
   
 * started run on 2026/08/20 at 02:37:37.927     
   ID    Z sym.   atoms
    1    6 C      1, 2, 5-7
    2    7 N      3, 4
    3    1 H      8-15

           -------------------------------------------------
          |                Calculation Setup                |
           -------------------------------------------------

          program call               : /h/399/yunhengzou/micromamba/envs/el-agente/bin/xtb prodB_pyrazole_guess.xyz --opt --gfn 2 -P 4 --chrg 0 --uhf 0
          coordinate file            : prodB_pyrazole_guess.xyz
          omp threads                :                     4


           -------------------------------------------------
          |                 G F N 2 - x T B                 |
           -------------------------------------------------

        Reference                      10.1021/acs.jctc.8b01176
      * Hamiltonian:
        H0-scaling (s, p, d)           1.850000    2.230000    2.230000
        zeta-weighting                 0.500000
      * Dispersion:
        s8                             2.700000
        a1                             0.520000
        a2                             5.000000
        s9                             5.000000
      * Repulsion:
        kExp                           1.500000    1.000000
        rExp                           1.000000
      * Coulomb:
        alpha                          2.000000
        third order                    shell-resolved
        anisotropic                    true
        a3                             3.000000
        a5                             4.000000
        cn-shift                       1.200000
        cn-exp                         4.000000
        max-rad                        5.000000


          ...................................................
          :                      SETUP                      :
          :.................................................:
          :  # basis functions                  36          :
          :  # atomic orbitals                  36          :
          :  # shells                           22          :
          :  # electrons                        38          :
          :  max. iterations                   250          :
          :  Hamiltonian                  GFN2-xTB          :
          :  restarted?                      false          :
          :  GBSA solvation                  false          :
          :  PC potential                    false          :
          :  electronic temp.          300.0000000     K    :
          :  accuracy                    1.0000000          :
          :  -> integral cutoff          0.2500000E+02      :
          :  -> integral neglect         0.1000000E-07      :
          :  -> SCF convergence          0.1000000E-05 Eh   :
          :  -> wf. convergence          0.1000000E-03 e    :
          :  Broyden damping             0.4000000          :
          :  net charge                          0          :
          :  unpaired electrons                  0          :
          ...................................................

 iter      E             dE          RMSdq      gap      omega  full diag
   1    -20.8471447 -0.208471E+02  0.314E+00    5.18       0.0  T
   2    -20.8941311 -0.469865E-01  0.237E+00    4.80       1.0  T
   3    -20.9019139 -0.778280E-02  0.129E+00    4.88       1.0  T
   4    -20.9018958  0.181644E-04  0.394E-01    4.76       1.0  T
   5    -20.9030117 -0.111593E-02  0.914E-02    4.79       1.0  T
   6    -20.9030291 -0.174121E-04  0.400E-02    4.77       1.0  T
   7    -20.9030365 -0.735423E-05  0.208E-02    4.78       1.2  T
   8    -20.9030371 -0.623695E-06  0.432E-03    4.78       6.0  T
   9    -20.9030372 -0.142353E-06  0.150E-03    4.78      17.2  T
  10    -20.9030372 -0.797036E-08  0.624E-04    4.78      41.4  T
  11    -20.9030372 -0.725237E-09  0.202E-04    4.78     127.6  T

   *** convergence criteria satisfied after 11 iterations ***

         #    Occupation            Energy/Eh            Energy/eV
      -------------------------------------------------------------
         1        2.0000           -0.6805939             -18.5199
       ...           ...                  ...                  ...
        13        2.0000           -0.4671181             -12.7109
        14        2.0000           -0.4658818             -12.6773
        15        2.0000           -0.4514061             -12.2834
        16        2.0000           -0.4366704             -11.8824
        17        2.0000           -0.3889856             -10.5848
        18        2.0000           -0.3783921             -10.2966
        19        2.0000           -0.3764944             -10.2449 (HOMO)
        20                         -0.2008788              -5.4662 (LUMO)
        21                         -0.1439463              -3.9170
        22                         -0.0071536              -0.1947
        23                          0.0937807               2.5519
        24                          0.1083584               2.9486
       ...                                ...                  ...
        36                          0.6734231              18.3248
      -------------------------------------------------------------
                  HL-Gap            0.1756156 Eh            4.7787 eV
             Fermi-level           -0.2886866 Eh           -7.8556 eV

 SCC (total)                   0 d,  0 h,  0 min,  2.720 sec
 SCC setup                      ...        0 min,  0.007 sec (  0.246%)
 Dispersion                     ...        0 min,  0.003 sec (  0.102%)
 classical contributions        ...        0 min,  0.005 sec (  0.184%)
 integral evaluation            ...        0 min,  0.000 sec (  0.016%)
 iterations                     ...        0 min,  2.480 sec ( 91.164%)
 molecular gradient             ...        0 min,  0.225 sec (  8.284%)
 printout                       ...        0 min,  0.000 sec (  0.005%)

         :::::::::::::::::::::::::::::::::::::::::::::::::::::
         ::                     SUMMARY                     ::
         :::::::::::::::::::::::::::::::::::::::::::::::::::::
         :: total energy             -20.618350626352 Eh    ::
         :: gradient norm              0.053963479660 Eh/a0 ::
         :: HOMO-LUMO gap              4.778744671162 eV    ::
         ::.................................................::
         :: SCC energy               -20.903030674581 Eh    ::
         :: -> isotropic ES            0.011432366723 Eh    ::
         :: -> anisotropic ES          0.003688124895 Eh    ::
         :: -> anisotropic XC          0.018003431842 Eh    ::
         :: -> dispersion             -0.009636651430 Eh    ::
         :: repulsion energy           0.284680048230 Eh    ::
         :: add. restraining           0.000000000000 Eh    ::
         :: total charge              -0.000000000000 e     ::
         :::::::::::::::::::::::::::::::::::::::::::::::::::::

      ----------------------------------------------------------- 
     |                   =====================                   |
     |                        A N C O P T                        |
     |                   =====================                   |
     |               Approximate Normal Coordinate               |
     |                Rational Function Optimizer                |
      ----------------------------------------------------------- 
      ----------------------------------------------------------- 
     |                   =====================                   |
     |                        A N C O P T                        |
     |                   =====================                   |
     |               Approximate Normal Coordinate               |
     |                Rational Function Optimizer                |
      ----------------------------------------------------------- 

          ...................................................
          :                      SETUP                      :
          :.................................................:
          :   optimization level            normal          :
          :   max. optcycles                   200          :
          :   ANC micro-cycles                  20          :
          :   degrees of freedom                39          :
          :.................................................:
          :   RF solver                   davidson          :
          :   write xtbopt.log                true          :
          :   linear?                        false          :
          :   energy convergence         0.5000000E-05 Eh   :
          :   grad. convergence          0.1000000E-02 Eh/α :
          :   maxmium RF displ.          1.0000000          :
          :   Hlow (freq-cutoff)         0.1000000E-01      :
          :   Hmax (freq-cutoff)         5.0000000          :
          :   S6 in model hess.         20.0000000          :
          ...................................................

generating ANC from exact Hessian ...
Using Lindh-Hessian (1995)
 Shifting diagonal of input Hessian by    4.1238789038368718E-003
 Lowest  eigenvalues of input Hessian
    0.000000    0.000000    0.000000    0.000000    0.000000    0.000000
    0.010000    0.011939    0.017520    0.018196    0.018437    0.035128
    0.043382    0.046480    0.062079    0.071172    0.076778    0.091030
 Highest eigenvalues
    1.159216    1.572857    1.835461    1.853547    2.050584    2.080836


........................................................................
.............................. CYCLE    1 ..............................
........................................................................

 iter      E             dE          RMSdq      gap      omega  full diag
   1    -20.9030372 -0.209030E+02  0.515E-05    4.78       0.0  T
   2    -20.9030372 -0.717648E-11  0.250E-05    4.78    1033.0  T
   3    -20.9030372 -0.326850E-12  0.132E-05    4.78    1961.3  T
     SCC iter.                  ...        0 min,  0.445 sec
     gradient                   ...        0 min,  0.143 sec
 * total energy  :   -20.6183506 Eh     change       -0.2244001E-09 Eh
   gradient norm :     0.0539611 Eh/α   predicted     0.0000000E+00 (-100.00%)
   displ. norm   :     0.2342178 α      lambda       -0.6628315E-02
   maximum displ.:     0.1284976 α      in ANC's #4, #9, #22, ...

........................................................................
.............................. CYCLE    2 ..............................
........................................................................

 iter      E             dE          RMSdq      gap      omega  full diag
   1    -20.9225990 -0.209226E+02  0.252E-01    4.85       0.0  T
   2    -20.9226569 -0.579723E-04  0.141E-01    4.86       1.0  T
   3    -20.9226525  0.439796E-05  0.475E-02    4.86       1.0  T
   4    -20.9226639 -0.113316E-04  0.129E-02    4.86       2.0  T
   5    -20.9226647 -0.835276E-06  0.538E-03    4.86       4.8  T
   6    -20.9226647  0.245454E-08  0.195E-03    4.86      13.2  T
   7    -20.9226647 -0.265213E-07  0.532E-04    4.86      48.5  T
   8    -20.9226647 -0.703050E-09  0.156E-04    4.86     165.8  T
     SCC iter.                  ...        0 min,  1.719 sec
     gradient                   ...        0 min,  0.037 sec
 * total energy  :   -20.6225320 Eh     change       -0.4181347E-02 Eh
   gradient norm :     0.0180978 Eh/α   predicted    -0.3495967E-02 ( -16.39%)
   displ. norm   :     0.1778917 α      lambda       -0.1059596E-02
   maximum displ.:     0.1289090 α      in ANC's #4, #1, #5, ...

........................................................................
.............................. CYCLE    3 ..............................
........................................................................

 iter      E             dE          RMSdq      gap      omega  full diag
   1    -20.9288443 -0.209288E+02  0.118E-01    4.88       0.0  T
   2    -20.9288534 -0.909211E-05  0.677E-02    4.89       1.0  T
   3    -20.9288515  0.184614E-05  0.207E-02    4.89       1.2  T
   4    -20.9288546 -0.312520E-05  0.530E-03    4.89       4.9  T
   5    -20.9288548 -0.148702E-06  0.196E-03    4.89      13.2  T
   6    -20.9288548  0.417160E-09  0.734E-04    4.89      35.2  T
   7    -20.9288548 -0.400788E-08  0.162E-04    4.89     159.7  T
     SCC iter.                  ...        0 min,  1.351 sec
     gradient                   ...        0 min,  0.170 sec
 * total energy  :   -20.6231797 Eh     change       -0.6477095E-03 Eh
   gradient norm :     0.0068237 Eh/α   predicted    -0.5465637E-03 ( -15.62%)
   displ. norm   :     0.1150310 α      lambda       -0.2261412E-03
   maximum displ.:     0.0883395 α      in ANC's #4, #1, #3, ...

........................................................................
.............................. CYCLE    4 ..............................
........................................................................

 iter      E             dE          RMSdq      gap      omega  full diag
   1    -20.9287331 -0.209287E+02  0.673E-02    4.89       0.0  T
   2    -20.9287342 -0.107134E-05  0.378E-02    4.89       1.0  T
   3    -20.9287340  0.145196E-06  0.740E-03    4.89       3.5  T
   4    -20.9287343 -0.275031E-06  0.187E-03    4.89      13.8  T
   5    -20.9287343 -0.250395E-07  0.712E-04    4.89      36.3  T
   6    -20.9287343 -0.231950E-09  0.225E-04    4.89     114.6  T
     SCC iter.                  ...        0 min,  1.025 sec
     gradient                   ...        0 min,  0.086 sec
 * total energy  :   -20.6233309 Eh     change       -0.1512090E-03 Eh
   gradient norm :     0.0043195 Eh/α   predicted    -0.1145671E-03 ( -24.23%)
   displ. norm   :     0.0744995 α      lambda       -0.6742332E-04
   maximum displ.:     0.0453012 α      in ANC's #4, #1, #3, ...

........................................................................
.............................. CYCLE    5 ..............................
........................................................................

 iter      E             dE          RMSdq      gap      omega  full diag
   1    -20.9281193 -0.209281E+02  0.400E-02    4.89       0.0  T
   2    -20.9281200 -0.735464E-06  0.223E-02    4.89       1.2  T
   3    -20.9281198  0.217570E-06  0.755E-03    4.89       3.4  T
   4    -20.9281202 -0.384452E-06  0.937E-04    4.89      27.6  T
   5    -20.9281202 -0.165985E-08  0.447E-04    4.89      57.8  T
     SCC iter.                  ...        0 min,  0.886 sec
     gradient                   ...        0 min,  0.141 sec
 * total energy  :   -20.6233708 Eh     change       -0.3993587E-04 Eh
   gradient norm :     0.0019483 Eh/α   predicted    -0.3390053E-04 ( -15.11%)
   displ. norm   :     0.0475579 α      lambda       -0.1214597E-04
   maximum displ.:     0.0317499 α      in ANC's #1, #3, #2, ...

........................................................................
.............................. CYCLE    6 ..............................
........................................................................

 iter      E             dE          RMSdq      gap      omega  full diag
   1    -20.9280230 -0.209280E+02  0.178E-02    4.89       0.0  T
   2    -20.9280233 -0.310715E-06  0.104E-02    4.89       2.5  T
   3    -20.9280233  0.395645E-07  0.445E-03    4.89       5.8  T
   4    -20.9280234 -0.114877E-06  0.454E-04    4.89      56.8  T
   5    -20.9280234 -0.260059E-09  0.226E-04    4.89     114.3  T
     SCC iter.                  ...        0 min,  0.924 sec
     gradient                   ...        0 min,  0.222 sec
 * total energy  :   -20.6233834 Eh     change       -0.1259251E-04 Eh
   gradient norm :     0.0012279 Eh/α   predicted    -0.6079677E-05 ( -51.72%)
   displ. norm   :     0.0761279 α      lambda       -0.1458487E-04
   maximum displ.:     0.0510940 α      in ANC's #1, #3, #5, ...

........................................................................
.............................. CYCLE    7 ..............................
........................................................................

 iter      E             dE          RMSdq      gap      omega  full diag
   1    -20.9279895 -0.209280E+02  0.239E-02    4.89       0.0  T
   2    -20.9279897 -0.156009E-06  0.142E-02    4.89       1.8  T
   3    -20.9279896  0.704883E-07  0.311E-03    4.89       8.3  T
   4    -20.9279897 -0.105057E-06  0.516E-04    4.89      50.1  T
   5    -20.9279897 -0.552792E-09  0.252E-04    4.89     102.6  T
     SCC iter.                  ...        0 min,  1.664 sec
     gradient                   ...        0 min,  0.131 sec
 * total energy  :   -20.6234021 Eh     change       -0.1869143E-04 Eh
   gradient norm :     0.0025077 Eh/α   predicted    -0.7310382E-05 ( -60.89%)
   displ. norm   :     0.1406438 α      lambda       -0.3688697E-04
   maximum displ.:     0.0942388 α      in ANC's #1, #3, #5, ...

........................................................................
.............................. CYCLE    8 ..............................
........................................................................

 iter      E             dE          RMSdq      gap      omega  full diag
   1    -20.9276941 -0.209277E+02  0.433E-02    4.89       0.0  T
   2    -20.9276942 -0.167815E-06  0.257E-02    4.89       1.0  T
   3    -20.9276942 -0.696153E-08  0.225E-03    4.89      11.5  T
   4    -20.9276943 -0.439640E-07  0.906E-04    4.89      28.5  T
   5    -20.9276943 -0.115182E-08  0.344E-04    4.89      75.0  T
     SCC iter.                  ...        0 min,  1.101 sec
     gradient                   ...        0 min,  0.319 sec
 * total energy  :   -20.6234341 Eh     change       -0.3197654E-04 Eh
   gradient norm :     0.0038019 Eh/α   predicted    -0.1880806E-04 ( -41.18%)
   displ. norm   :     0.2562150 α      lambda       -0.6184643E-04
   maximum displ.:     0.1742073 α      in ANC's #1, #3, #5, ...

........................................................................
.............................. CYCLE    9 ..............................
........................................................................

 iter      E             dE          RMSdq      gap      omega  full diag
   1    -20.9264210 -0.209264E+02  0.790E-02    4.89       0.0  T
   2    -20.9264216 -0.598067E-06  0.468E-02    4.89       1.0  T
   3    -20.9264217 -0.117526E-06  0.318E-03    4.89       8.1  T
   4    -20.9264217 -0.337884E-07  0.165E-03    4.89      15.7  T
   5    -20.9264217 -0.575167E-08  0.810E-04    4.89      31.9  T
   6    -20.9264217 -0.308190E-08  0.131E-04    4.89     197.7  T
     SCC iter.                  ...        0 min,  1.709 sec
     gradient                   ...        0 min,  0.198 sec
 * total energy  :   -20.6234723 Eh     change       -0.3824005E-04 Eh
   gradient norm :     0.0060896 Eh/α   predicted    -0.3295202E-04 ( -13.83%)
   displ. norm   :     0.1042550 α      lambda       -0.4465258E-04
   maximum displ.:     0.0715951 α      in ANC's #1, #3, #5, ...

........................................................................
.............................. CYCLE   10 ..............................
........................................................................

 iter      E             dE          RMSdq      gap      omega  full diag
   1    -20.9269100 -0.209269E+02  0.323E-02    4.89       0.0  T
   2    -20.9269101 -0.166264E-06  0.191E-02    4.89       1.4  T
   3    -20.9269101  0.146457E-07  0.237E-03    4.89      10.9  T
   4    -20.9269102 -0.500180E-07  0.771E-04    4.89      33.5  T
   5    -20.9269102 -0.160316E-08  0.373E-04    4.89      69.2  T
     SCC iter.                  ...        0 min,  1.239 sec
     gradient                   ...        0 min,  0.263 sec
 * total energy  :   -20.6235096 Eh     change       -0.3723695E-04 Eh
   gradient norm :     0.0049084 Eh/α   predicted    -0.2256997E-04 ( -39.39%)
   displ. norm   :     0.2381553 α      lambda       -0.9040533E-04
   maximum displ.:     0.1746668 α      in ANC's #1, #3, #5, ...

........................................................................
.............................. CYCLE   11 ..............................
........................................................................

 iter      E             dE          RMSdq      gap      omega  full diag
   1    -20.9274197 -0.209274E+02  0.690E-02    4.89       0.0  T
   2    -20.9274205 -0.779855E-06  0.411E-02    4.89       1.0  T
   3    -20.9274202  0.231432E-06  0.613E-03    4.89       4.2  T
   4    -20.9274206 -0.400974E-06  0.156E-03    4.89      16.6  T
   5    -20.9274207 -0.747162E-08  0.770E-04    4.89      33.6  T
   6    -20.9274207 -0.527841E-09  0.245E-04    4.89     105.5  T
     SCC iter.                  ...        0 min,  0.962 sec
     gradient                   ...        0 min,  0.286 sec
 * total energy  :   -20.6235747 Eh     change       -0.6515317E-04 Eh
   gradient norm :     0.0025175 Eh/α   predicted    -0.4776698E-04 ( -26.69%)
   displ. norm   :     0.1599424 α      lambda       -0.5392324E-04
   maximum displ.:     0.1205888 α      in ANC's #1, #3, #4, ...

........................................................................
.............................. CYCLE   12 ..............................
........................................................................

 iter      E             dE          RMSdq      gap      omega  full diag
   1    -20.9285482 -0.209285E+02  0.470E-02    4.90       0.0  T
   2    -20.9285489 -0.674425E-06  0.279E-02    4.90       1.0  T
   3    -20.9285488  0.107694E-06  0.507E-03    4.90       5.1  T
   4    -20.9285490 -0.192851E-06  0.125E-03    4.90      20.6  T
   5    -20.9285490 -0.850966E-08  0.595E-04    4.90      43.4  T
   6    -20.9285490 -0.129891E-09  0.201E-04    4.90     128.3  T
     SCC iter.                  ...        0 min,  1.190 sec
     gradient                   ...        0 min,  0.363 sec
 * total energy  :   -20.6236085 Eh     change       -0.3374759E-04 Eh
   gradient norm :     0.0021154 Eh/α   predicted    -0.2764963E-04 ( -18.07%)
   displ. norm   :     0.5202620 α      lambda       -0.7800842E-04
   maximum displ.:     0.3830789 α      in ANC's #1, #3, #5, ...

........................................................................
.............................. CYCLE   13 ..............................
........................................................................

 iter      E             dE          RMSdq      gap      omega  full diag
   1    -20.9203960 -0.209204E+02  0.164E-01    4.89       0.0  T
   2    -20.9204067 -0.106876E-04  0.954E-02    4.89       1.0  T
   3    -20.9204070 -0.324114E-06  0.160E-02    4.89       1.6  T
   4    -20.9204077 -0.677218E-06  0.567E-03    4.89       4.6  T
   5    -20.9204079 -0.181493E-06  0.267E-03    4.89       9.7  T
   6    -20.9204079 -0.132988E-07  0.740E-04    4.89      34.9  T
   7    -20.9204079 -0.139644E-08  0.269E-04    4.89      95.9  T
     SCC iter.                  ...        0 min,  2.413 sec
     gradient                   ...        0 min,  0.277 sec
 * total energy  :   -20.6232950 Eh     change        0.3134967E-03 Eh
   gradient norm :     0.0164364 Eh/α   predicted    -0.4957521E-04 (-115.81%)
   displ. norm   :     0.3287909 α      lambda       -0.8478577E-03
   maximum displ.:     0.2406800 α      in ANC's #1, #3, #5, ...

........................................................................
.............................. CYCLE   14 ..............................
........................................................................

 iter      E             dE          RMSdq      gap      omega  full diag
   1    -20.9286104 -0.209286E+02  0.119E-01    4.90       0.0  T
   2    -20.9286194 -0.893634E-05  0.679E-02    4.90       1.0  T
   3    -20.9286196 -0.272056E-06  0.152E-02    4.90       1.7  T
   4    -20.9286200 -0.389848E-06  0.483E-03    4.90       5.3  T
   5    -20.9286202 -0.140970E-06  0.217E-03    4.90      11.9  T
   6    -20.9286202 -0.942686E-08  0.676E-04    4.90      38.2  T
   7    -20.9286202 -0.869374E-09  0.250E-04    4.90     103.1  T
     SCC iter.                  ...        0 min,  1.430 sec
     gradient                   ...        0 min,  0.195 sec
 * total energy  :   -20.6236323 Eh     change       -0.3372828E-03 Eh
   gradient norm :     0.0028319 Eh/α   predicted    -0.4697518E-03 (  39.28%)
   displ. norm   :     0.0253201 α      lambda       -0.8361119E-05
   maximum displ.:     0.0191363 α      in ANC's #1, #3, #5, ...

........................................................................
.............................. CYCLE   15 ..............................
........................................................................

 iter      E             dE          RMSdq      gap      omega  full diag
   1    -20.9283913 -0.209284E+02  0.833E-03    4.90       0.0  T
   2    -20.9283913 -0.506669E-07  0.496E-03    4.90       5.2  T
   3    -20.9283913  0.812804E-08  0.154E-03    4.90      16.7  T
   4    -20.9283913 -0.153030E-07  0.272E-04    4.90      95.0  T
   5    -20.9283913 -0.337728E-09  0.126E-04    4.90     205.7  T
     SCC iter.                  ...        0 min,  0.833 sec
     gradient                   ...        0 min,  0.152 sec
 * total energy  :   -20.6236391 Eh     change       -0.6888439E-05 Eh
   gradient norm :     0.0018848 Eh/α   predicted    -0.4183324E-05 ( -39.27%)
   displ. norm   :     0.1908880 α      lambda       -0.2385512E-04
   maximum displ.:     0.1462992 α      in ANC's #1, #3, #5, ...

........................................................................
.............................. CYCLE   16 ..............................
........................................................................

 iter      E             dE          RMSdq      gap      omega  full diag
   1    -20.9270503 -0.209271E+02  0.551E-02    4.89       0.0  T
   2    -20.9270514 -0.106323E-05  0.329E-02    4.89       1.0  T
   3    -20.9270510  0.323563E-06  0.747E-03    4.89       3.5  T
   4    -20.9270515 -0.502251E-06  0.134E-03    4.89      19.3  T
   5    -20.9270515 -0.615312E-08  0.676E-04    4.89      38.2  T
   6    -20.9270515  0.553158E-11  0.198E-04    4.89     130.6  T
     SCC iter.                  ...        0 min,  1.189 sec
     gradient                   ...        0 min,  0.266 sec
 * total energy  :   -20.6236479 Eh     change       -0.8769895E-05 Eh
   gradient norm :     0.0035580 Eh/α   predicted    -0.1212216E-04 (  38.22%)
   displ. norm   :     0.0098903 α      lambda       -0.1512891E-04
   maximum displ.:     0.0044447 α      in ANC's #5, #2, #1, ...

........................................................................
.............................. CYCLE   17 ..............................
........................................................................

 iter      E             dE          RMSdq      gap      omega  full diag
   1    -20.9278147 -0.209278E+02  0.930E-03    4.90       0.0  T
   2    -20.9278149 -0.120912E-06  0.522E-03    4.90       4.9  T
   3    -20.9278149 -0.912515E-09  0.197E-03    4.90      13.1  T
   4    -20.9278149 -0.853111E-08  0.484E-04    4.90      53.3  T
   5    -20.9278149 -0.126107E-08  0.218E-04    4.90     118.4  T
     SCC iter.                  ...        0 min,  2.442 sec
     gradient                   ...        0 min,  0.287 sec
 * total energy  :   -20.6236578 Eh     change       -0.9895375E-05 Eh
   gradient norm :     0.0021186 Eh/α   predicted    -0.7567100E-05 ( -23.53%)
   displ. norm   :     0.0315759 α      lambda       -0.1149011E-04
   maximum displ.:     0.0213630 α      in ANC's #1, #3, #22, ...

........................................................................
.............................. CYCLE   18 ..............................
........................................................................

 iter      E             dE          RMSdq      gap      omega  full diag
   1    -20.9285286 -0.209285E+02  0.120E-02    4.90       0.0  T
   2    -20.9285287 -0.185585E-06  0.700E-03    4.90       3.7  T
   3    -20.9285287  0.808674E-08  0.272E-03    4.90       9.5  T
   4    -20.9285288 -0.283174E-07  0.570E-04    4.90      45.3  T
   5    -20.9285288 -0.179101E-08  0.243E-04    4.90     106.5  T
     SCC iter.                  ...        0 min,  1.036 sec
     gradient                   ...        0 min,  0.164 sec
 * total energy  :   -20.6236641 Eh     change       -0.6260155E-05 Eh
   gradient norm :     0.0004532 Eh/α   predicted    -0.5750329E-05 (  -8.14%)
   displ. norm   :     0.1477997 α      lambda       -0.8285851E-05
   maximum displ.:     0.1082422 α      in ANC's #1, #3, #5, ...

........................................................................
.............................. CYCLE   19 ..............................
........................................................................

 iter      E             dE          RMSdq      gap      omega  full diag
   1    -20.9283283 -0.209283E+02  0.411E-02    4.90       0.0  T
   2    -20.9283284 -0.127773E-06  0.245E-02    4.90       1.1  T
   3    -20.9283284  0.496507E-08  0.220E-03    4.90      11.7  T
   4    -20.9283285 -0.443895E-07  0.863E-04    4.90      29.9  T
   5    -20.9283285 -0.121186E-08  0.374E-04    4.90      69.1  T
     SCC iter.                  ...        0 min,  0.922 sec
     gradient                   ...        0 min,  0.060 sec
 * total energy  :   -20.6236725 Eh     change       -0.8437900E-05 Eh
   gradient norm :     0.0008503 Eh/α   predicted    -0.4183722E-05 ( -50.42%)
   displ. norm   :     0.1739294 α      lambda       -0.5970393E-05
   maximum displ.:     0.1264363 α      in ANC's #1, #3, #5, ...

........................................................................
.............................. CYCLE   20 ..............................
........................................................................

 iter      E             dE          RMSdq      gap      omega  full diag
   1    -20.9274927 -0.209275E+02  0.484E-02    4.90       0.0  T
   2    -20.9274929 -0.197990E-06  0.288E-02    4.90       1.0  T
   3    -20.9274929 -0.451180E-07  0.170E-03    4.90      15.2  T
   4    -20.9274929 -0.660297E-08  0.869E-04    4.90      29.7  T
   5    -20.9274929 -0.530239E-09  0.351E-04    4.90      73.6  T
     SCC iter.                  ...        0 min,  0.712 sec
     gradient                   ...        0 min,  0.312 sec
 * total energy  :   -20.6236725 Eh     change       -0.3211593E-08 Eh
   gradient norm :     0.0021460 Eh/α   predicted    -0.3025676E-05 (*******%)
   displ. norm   :     0.0431698 α      lambda       -0.7794322E-05
   maximum displ.:     0.0333716 α      in ANC's #1, #3, #5, ...
 * RMSD in coord.:     0.4951933 α      energy gain  -0.5321881E-02 Eh

generating ANC from exact Hessian ...
Using Lindh-Hessian (1995)
 Shifting diagonal of input Hessian by    3.4490811552823856E-003
 Lowest  eigenvalues of input Hessian
    0.000000    0.000000    0.000000    0.000000    0.000000    0.000000
    0.010000    0.012222    0.017996    0.018333    0.019263    0.037204
    0.047297    0.051448    0.068099    0.079046    0.087323    0.093254
 Highest eigenvalues
    1.209399    1.622450    1.818377    1.903288    2.085850    2.093187


........................................................................
.............................. CYCLE   21 ..............................
........................................................................

 iter      E             dE          RMSdq      gap      omega  full diag
   1    -20.9281722 -0.209282E+02  0.130E-02    4.90       0.0  T
   2    -20.9281722 -0.612278E-07  0.761E-03    4.90       3.4  T
   3    -20.9281722  0.246434E-09  0.128E-03    4.90      20.1  T
   4    -20.9281723 -0.630458E-08  0.477E-04    4.90      54.1  T
   5    -20.9281723 -0.128936E-08  0.200E-04    4.90     128.9  T
     SCC iter.                  ...        0 min,  1.088 sec
     gradient                   ...        0 min,  0.374 sec
 * total energy  :   -20.6236771 Eh     change       -0.4565200E-05 Eh
   gradient norm :     0.0008229 Eh/α   predicted     0.0000000E+00 (-100.00%)
   displ. norm   :     0.0038982 α      lambda       -0.1190689E-05
   maximum displ.:     0.0025693 α      in ANC's #5, #22, #27, ...

   *** GEOMETRY OPTIMIZATION CONVERGED AFTER 21 ITERATIONS ***

------------------------------------------------------------------------
 total energy gain   :        -0.0053264 Eh       -3.3424 kcal/mol
 total RMSD          :         0.4951933 a0        0.2620 Å
 total power (kW/mol):        -0.6659326 (step)   -0.4107 (real)
------------------------------------------------------------------------

 ANCopt (total)                0 d,  0 h,  0 min, 34.047 sec
 optimizer setup                ...        0 min,  0.000 sec (  0.001%)
 model hessian                  ...        0 min,  0.003 sec (  0.010%)
 ANC generation                 ...        0 min,  0.001 sec (  0.002%)
 coordinate transformation      ...        0 min,  0.000 sec (  0.001%)
 single point calculation       ...        0 min, 33.618 sec ( 98.741%)
 optimization log               ...        0 min,  0.002 sec (  0.005%)
 hessian update                 ...        0 min,  0.414 sec (  1.217%)
 rational function              ...        0 min,  0.007 sec (  0.019%)

================
 final structure:
================
15
 xtb: 6.7.1 (edcfbbe)
C            2.45480806463375       -0.55248140530638        0.03209546341098
C            1.05836175524070       -0.04058960628785        0.03709717081322
N            0.01942993818658       -0.84773853440652       -0.09842202048357
N           -1.06645892439777       -0.07995445946752       -0.05068407877313
C           -0.74832933135375        1.21958595018701        0.11455446083003
C            0.62283563346116        1.29065258191019        0.17669147337742
C           -2.37347211785996       -0.65571147794072       -0.17178182533979
H            3.01857064309635       -0.11049745095942       -0.78892553036809
H            2.95659409196263       -0.29612919587100        0.96462769960863
H            2.44370988830214       -1.63259724358691       -0.08314355255096
H           -1.50068743066410        1.98061700354961        0.17499787396740
H            1.22887793696068        2.16430314097742        0.30364736342048
H           -2.25126033443692       -1.73373725056634       -0.25925945785536
H           -2.97902450616684       -0.42921986989818        0.70897961941800
H           -2.88395531696472       -0.27650220233358       -1.06047466947520

 Bond Distances (Angstroems)
 ---------------------------
C1-C2=1.4873         C1-H8=1.0896         C1-H9=1.0896         C1-H10=1.0863        C2-C1=1.4873         C2-N3=1.3226         
C2-C6=1.4076         N3-C2=1.3226         N3-N4=1.3308         N4-N3=1.3308         N4-C5=1.3481         N4-C7=1.4333         
C5-N4=1.3481         C5-C6=1.3744         C5-H11=1.0719        C6-C2=1.4076         C6-C5=1.3744         C6-H12=1.0708        
C7-N4=1.4333         C7-H13=1.0885        C7-H14=1.0926        C7-H15=1.0928        H8-C1=1.0896         H9-C1=1.0896         
H10-C1=1.0863        H11-C5=1.0719        H12-C6=1.0708        H13-C7=1.0885        H14-C7=1.0926        H15-C7=1.0928        
 C  H  Rav=1.0852 sigma=0.0083  Rmin=1.0708  Rmax=1.0928     8
 C  C  Rav=1.4231 sigma=0.0474  Rmin=1.3744  Rmax=1.4873     3
 N  C  Rav=1.3680 sigma=0.0474  Rmin=1.3226  Rmax=1.4333     3
 N  N  Rav=1.3308 sigma=0.0000  Rmin=1.3308  Rmax=1.3308     1

 selected bond angles (degree)
 --------------------
H8-C1-C2=110.41                H9-C1-C2=110.40                H9-C1-H8=108.13                H10-C1-C2=109.45               
H10-C1-H8=109.19               H10-C1-H9=109.23               N3-C2-C1=121.81                C6-C2-C1=128.05                
C6-C2-N3=110.14                N4-N3-C2=106.57                C5-N4-N3=111.59                C7-N4-N3=120.62                
C7-N4-C5=127.79                C6-C5-N4=106.91                H11-C5-N4=121.72               H11-C5-C6=131.38               
C5-C6-C2=104.79                H12-C6-C2=127.46               H12-C6-C5=127.75               H13-C7-N4=107.59               
H14-C7-N4=110.73               H14-C7-H13=109.41              H15-C7-N4=110.81               H15-C7-H13=109.32              
H15-C7-H14=108.95              

 selected dihedral angles (degree)
 ---------------------------------
N3-C2-C1-H8=119.56            N3-C2-C1-H9=239.08            N3-C2-C1-H10=359.35           C6-C2-C1-H8=299.53            
C6-C2-C1-H9= 59.04            C6-C2-C1-H10=179.31           N4-N3-C2-C1=179.98            N4-N3-C2-C6=  0.00            
C5-N4-N3-C2=  0.00            C7-N4-N3-C2=179.89            C6-C5-N4-N3=  0.00            C6-C5-N4-C7=180.11            
H11-C5-N4-N3=180.03           H11-C5-N4-C7=  0.14           C5-C6-C2-C1=180.02            C5-C6-C2-N3=  0.00            
H12-C6-C2-C1=  0.00           H12-C6-C2-N3=179.97           C2-C6-C5-N4=  0.00            C2-C6-C5-H11=179.97           
H12-C6-C5-N4=180.03           H12-C6-C5-H11=  0.00          H13-C7-N4-N3=  1.97           H13-C7-N4-C5=181.85           
H14-C7-N4-N3=121.49           H14-C7-N4-C5=301.37           H15-C7-N4-N3=242.51           H15-C7-N4-C5= 62.39           
           -------------------------------------------------
          |                Final Singlepoint                |
           -------------------------------------------------

          ...................................................
          :                      SETUP                      :
          :.................................................:
          :  # basis functions                  36          :
          :  # atomic orbitals                  36          :
          :  # shells                           22          :
          :  # electrons                        38          :
          :  max. iterations                   250          :
          :  Hamiltonian                  GFN2-xTB          :
          :  restarted?                      false          :
          :  GBSA solvation                  false          :
          :  PC potential                    false          :
          :  electronic temp.          300.0000000     K    :
          :  accuracy                    1.0000000          :
          :  -> integral cutoff          0.2500000E+02      :
          :  -> integral neglect         0.1000000E-07      :
          :  -> SCF convergence          0.1000000E-05 Eh   :
          :  -> wf. convergence          0.1000000E-03 e    :
          :  Broyden damping             0.4000000          :
          :  net charge                          0          :
          :  unpaired electrons                  0          :
          ...................................................

 iter      E             dE          RMSdq      gap      omega  full diag
   1    -20.9281723 -0.209282E+02  0.634E-05    4.90       0.0  T
   2    -20.9281723 -0.129390E-10  0.344E-05    4.90     750.2  T
   3    -20.9281723 -0.309797E-11  0.198E-05    4.90    1305.6  T

   *** convergence criteria satisfied after 3 iterations ***

         #    Occupation            Energy/Eh            Energy/eV
      -------------------------------------------------------------
         1        2.0000           -0.6801861             -18.5088
       ...           ...                  ...                  ...
        13        2.0000           -0.4673242             -12.7165
        14        2.0000           -0.4652154             -12.6592
        15        2.0000           -0.4499028             -12.2425
        16        2.0000           -0.4408192             -11.9953
        17        2.0000           -0.3892883             -10.5931
        18        2.0000           -0.3793211             -10.3219
        19        2.0000           -0.3782766             -10.2934 (HOMO)
        20                         -0.1982841              -5.3956 (LUMO)
        21                         -0.1456261              -3.9627
        22                          0.0142710               0.3883
        23                          0.1142480               3.1088
        24                          0.1256338               3.4187
       ...                                ...                  ...
        36                          0.6795274              18.4909
      -------------------------------------------------------------
                  HL-Gap            0.1799925 Eh            4.8978 eV
             Fermi-level           -0.2882803 Eh           -7.8445 eV

 SCC (total)                   0 d,  0 h,  0 min,  0.517 sec
 SCC setup                      ...        0 min,  0.002 sec (  0.357%)
 Dispersion                     ...        0 min,  0.000 sec (  0.008%)
 classical contributions        ...        0 min,  0.000 sec (  0.015%)
 integral evaluation            ...        0 min,  0.000 sec (  0.078%)
 iterations                     ...        0 min,  0.378 sec ( 73.109%)
 molecular gradient             ...        0 min,  0.137 sec ( 26.402%)
 printout                       ...        0 min,  0.000 sec (  0.026%)

         :::::::::::::::::::::::::::::::::::::::::::::::::::::
         ::                     SUMMARY                     ::
         :::::::::::::::::::::::::::::::::::::::::::::::::::::
         :: total energy             -20.623677073011 Eh    ::
         :: gradient norm              0.000823715822 Eh/a0 ::
         :: HOMO-LUMO gap              4.897845579074 eV    ::
         ::.................................................::
         :: SCC energy               -20.928163509776 Eh    ::
         :: -> isotropic ES            0.011221223616 Eh    ::
         :: -> anisotropic ES          0.002837387134 Eh    ::
         :: -> anisotropic XC          0.017058591596 Eh    ::
         :: -> dispersion             -0.009674363801 Eh    ::
         :: repulsion energy           0.304486436764 Eh    ::
         :: add. restraining           0.000000000000 Eh    ::
         :: total charge               0.000000000000 e     ::
         :::::::::::::::::::::::::::::::::::::::::::::::::::::

           -------------------------------------------------
          |                Property Printout                |
           -------------------------------------------------

    * Orbital Energies and Occupations

         #    Occupation            Energy/Eh            Energy/eV
      -------------------------------------------------------------
         1        2.0000           -0.6801861             -18.5088
       ...           ...                  ...                  ...
         7        2.0000           -0.5484976             -14.9254
         8        2.0000           -0.5456560             -14.8481
         9        2.0000           -0.5311673             -14.4538
        10        2.0000           -0.4948345             -13.4651
        11        2.0000           -0.4914739             -13.3737
        12        2.0000           -0.4836516             -13.1608
        13        2.0000           -0.4673242             -12.7165
        14        2.0000           -0.4652154             -12.6592
        15        2.0000           -0.4499028             -12.2425
        16        2.0000           -0.4408192             -11.9953
        17        2.0000           -0.3892883             -10.5931
        18        2.0000           -0.3793211             -10.3219
        19        2.0000           -0.3782766             -10.2934 (HOMO)
        20                         -0.1982841              -5.3956 (LUMO)
        21                         -0.1456261              -3.9627
        22                          0.0142710               0.3883
        23                          0.1142480               3.1088
        24                          0.1256338               3.4187
        25                          0.1424739               3.8769
        26                          0.1779676               4.8427
        27                          0.1840568               5.0084
        28                          0.1969760               5.3600
        29                          0.1986078               5.4044
        30                          0.2129829               5.7956
       ...                                ...                  ...
        36                          0.6795274              18.4909
      -------------------------------------------------------------
                  HL-Gap            0.1799925 Eh            4.8978 eV
             Fermi-level           -0.2882803 Eh           -7.8445 eV

     #   Z          covCN         q      C6AA      α(0)
     1   6 C        3.755    -0.109    22.632     6.783
     2   6 C        3.153     0.068    26.206     8.372
     3   7 N        2.015    -0.254    27.397     7.763
     4   7 N        3.033     0.082    19.816     6.612
     5   6 C        3.023    -0.022    28.536     8.762
     6   6 C        3.025    -0.085    30.101     8.999
     7   6 C        3.691    -0.061    21.857     6.690
     8   1 H        0.925     0.042     2.416     2.431
     9   1 H        0.925     0.042     2.418     2.432
    10   1 H        0.925     0.053     2.280     2.361
    11   1 H        0.926     0.026     2.638     2.540
    12   1 H        0.926     0.020     2.730     2.584
    13   1 H        0.925     0.083     1.950     2.184
    14   1 H        0.924     0.057     2.237     2.339
    15   1 H        0.924     0.057     2.237     2.339

 Mol. C6AA /au·bohr⁶  :       2235.638795
 Mol. C8AA /au·bohr⁸  :      50347.513865
 Mol. α(0) /au        :         73.191565


Wiberg/Mayer (AO) data.
largest (>0.10) Wiberg bond orders for each atom

 ---------------------------------------------------------------------------
     #   Z sym  total        # sym  WBO       # sym  WBO       # sym  WBO
 ---------------------------------------------------------------------------
     1   6 C    3.997 --     2 C    1.027    10 H    0.984     9 H    0.974
                             8 H    0.973
     2   6 C    3.977 --     3 N    1.484     6 C    1.338     1 C    1.027
     3   7 N    2.956 --     2 C    1.484     4 N    1.197     5 C    0.153
     4   7 N    3.668 --     5 C    1.276     3 N    1.197     7 C    1.005
     5   6 C    3.958 --     6 C    1.512     4 N    1.276    11 H    0.969
                             3 N    0.153
     6   6 C    3.977 --     5 C    1.512     2 C    1.338    12 H    0.975
     7   6 C    3.971 --     4 N    1.005    13 H    0.979    14 H    0.975
                            15 H    0.974
     8   1 H    0.998 --     1 C    0.973
     9   1 H    0.998 --     1 C    0.974
    10   1 H    0.997 --     1 C    0.984
    11   1 H    0.999 --     5 C    0.969
    12   1 H    1.000 --     6 C    0.975
    13   1 H    0.993 --     7 C    0.979
    14   1 H    0.996 --     7 C    0.975
    15   1 H    0.996 --     7 C    0.974
 ---------------------------------------------------------------------------

Topologies differ in total number of bonds
Writing topology from bond orders to xtbtopo.mol

molecular dipole:
                 x           y           z       tot (Debye)
 q only:       -0.625      -0.043      -0.028
   full:       -0.674       0.366       0.016       1.949
molecular quadrupole (traceless):
                xx          xy          yy          xz          yz          zz
 q only:        5.400       0.890      -2.614       0.420       0.051      -2.786
  q+dip:        6.174       0.527      -2.794       0.434       0.091      -3.380
   full:        6.102       0.554      -3.586       0.399      -0.106      -2.516

           -------------------------------------------------
          |                Geometry Summary                 |
           -------------------------------------------------

      molecular mass/u    :       96.1306119
   center of mass at/Å    :       -0.0254966       0.0189397       0.0014309
  moments of inertia/u·Å² :        0.7567534E+02   0.2345708E+03   0.3039198E+03
rotational constants/cm⁻¹ :        0.2227626E+00   0.7186586E-01   0.5546737E-01

 * 15 selected distances

     #   Z          #   Z                                           value/Å
     1   6 C        2   6 C                                       1.4873201 (max)
     2   6 C        3   7 N                                       1.3225863
     3   7 N        4   7 N                                       1.3307615
     4   7 N        5   6 C                                       1.3480786
     2   6 C        6   6 C                                       1.4076135
     5   6 C        6   6 C                                       1.3744109
     4   7 N        7   6 C                                       1.4333334
     1   6 C        8   1 H                                       1.0896117
     1   6 C        9   1 H                                       1.0895514
     1   6 C       10   1 H                                       1.0863027
     5   6 C       11   1 H                                       1.0718510
     6   6 C       12   1 H                                       1.0708271 (min)
     7   6 C       13   1 H                                       1.0884520
     7   6 C       14   1 H                                       1.0925809
     7   6 C       15   1 H                                       1.0927799

 * 4 distinct bonds (by element types)

   Z      Z             #   av. dist./Å        max./Å        min./Å
   1 H    6 C           8     1.0852446     1.0927799     1.0708271
   6 C    6 C           3     1.4231148     1.4873201     1.3744109
   6 C    7 N           3     1.3679994     1.4333334     1.3225863
   7 N    7 N           1     1.3307615     1.3307615     1.3307615


optimized geometry written to: xtbopt.xyz


           -------------------------------------------------
          | TOTAL ENERGY              -20.623677073011 Eh   |
          | GRADIENT NORM               0.000823715822 Eh/α |
          | HOMO-LUMO GAP               4.897845579074 eV   |
           -------------------------------------------------

------------------------------------------------------------------------
 * finished run on 2026/08/20 at 02:38:15.426     
------------------------------------------------------------------------
 total:
 * wall-time:     0 d,  0 h,  0 min, 37.499 sec
 *  cpu-time:     0 d,  0 h,  1 min, 16.023 sec
 * ratio c/w:     2.027 speedup
 SCF:
 * wall-time:     0 d,  0 h,  0 min,  2.720 sec
 *  cpu-time:     0 d,  0 h,  0 min,  6.326 sec
 * ratio c/w:     2.326 speedup
 ANC optimizer:
 * wall-time:     0 d,  0 h,  0 min, 34.584 sec
 *  cpu-time:     0 d,  0 h,  1 min,  9.300 sec
 * ratio c/w:     2.004 speedup

