      -----------------------------------------------------------      
     |                   =====================                   |     
     |                           x T B                           |     
     |                   =====================                   |     
     |                         S. Grimme                         |     
     |          Mulliken Center for Theoretical Chemistry        |     
     |                    University of Bonn                     |     
      -----------------------------------------------------------      

   * xtb version 6.7.1 (edcfbbe) compiled by 'conda@3ef47c1a292c' on 2024-11-25

   xtb is free software: you can redistribute it and/or modify it under
   the terms of the GNU Lesser General Public License as published by
   the Free Software Foundation, either version 3 of the License, or
   (at your option) any later version.
   
   xtb is distributed in the hope that it will be useful,
   but WITHOUT ANY WARRANTY; without even the implied warranty of
   MERCHANTABILITY or FITNESS FOR A PARTICULAR PURPOSE.  See the
   GNU Lesser General Public License for more details.
   
   Cite this work as:
   * C. Bannwarth, E. Caldeweyher, S. Ehlert, A. Hansen, P. Pracht,
     J. Seibert, S. Spicher, S. Grimme, WIREs Comput. Mol. Sci., 2020, 11,
     e01493. DOI: 10.1002/wcms.1493
   
   for GFN2-xTB:
   * C. Bannwarth, S. Ehlert and S. Grimme., J. Chem. Theory Comput., 2019,
     15, 1652-1671. DOI: 10.1021/acs.jctc.8b01176
   for GFN1-xTB:
   * S. Grimme, C. Bannwarth, P. Shushkov, J. Chem. Theory Comput., 2017,
     13, 1989-2009. DOI: 10.1021/acs.jctc.7b00118
   for GFN0-xTB:
   * P. Pracht, E. Caldeweyher, S. Ehlert, S. Grimme, ChemRxiv, 2019, preprint.
     DOI: 10.26434/chemrxiv.8326202.v1
   for GFN-FF:
   * S. Spicher and S. Grimme, Angew. Chem. Int. Ed., 2020, 59, 15665-15673.
     DOI: 10.1002/anie.202004239
   
   for ALPB and GBSA implicit solvation:
   * S. Ehlert, M. Stahn, S. Spicher, S. Grimme, J. Chem. Theory Comput.,
     2021, 17, 4250-4261. DOI: 10.1021/acs.jctc.1c00471
   
   for ddCOSMO and CPCM-X implicit solvation:
   * M. Stahn, S. Ehlert, S. Grimme, J. Phys. Chem. A,
     2023, XX, XXXX-XXXX. DOI: 10.1021/acs.jpca.3c04382
   
   for DFT-D4:
   * E. Caldeweyher, C. Bannwarth and S. Grimme, J. Chem. Phys., 2017,
     147, 034112. DOI: 10.1063/1.4993215
   * E. Caldeweyher, S. Ehlert, A. Hansen, H. Neugebauer, S. Spicher,
     C. Bannwarth and S. Grimme, J. Chem. Phys., 2019, 150, 154122.
     DOI: 10.1063/1.5090222
   * E. Caldeweyher, J.-M. Mewes, S. Ehlert and S. Grimme, Phys. Chem. Chem. Phys.
     2020, 22, 8499-8512. DOI: 10.1039/D0CP00502A
   
   for sTDA-xTB:
   * S. Grimme and C. Bannwarth, J. Chem. Phys., 2016, 145, 054103.
     DOI: 10.1063/1.4959605
   
   in the mass-spec context:
   * V. Asgeirsson, C. Bauer and S. Grimme, Chem. Sci., 2017, 8, 4879.
     DOI: 10.1039/c7sc00601b
   * J. Koopman and S. Grimme, ACS Omega 2019, 4, 12, 15120-15133.
     DOI: 10.1021/acsomega.9b02011
   
   for metadynamics refer to:
   * S. Grimme, J. Chem. Theory Comput., 2019, 155, 2847-2862
     DOI: 10.1021/acs.jctc.9b00143
   
   for SPH calculations refer to:
   * S. Spicher and S. Grimme, J. Chem. Theory Comput., 2021, 17, 1701-1714
     DOI: 10.1021/acs.jctc.0c01306
   
   for ONIOM refer to:
   * C. Plett, A. Katbashev, S. Ehlert, S. Grimme, M. Bursch,
     Phys. Chem. Chem. Phys., 2023, 25, 17860-17868. DOI: 10.1039/D3CP02178E
   
   for DIPRO refer to:
   * J. Kohn, N. Gildemeister, S. Grimme, D. Fazzi, A. Hansen,
     J. Chem. Phys., 2023, just accepted.
   
   for PTB refer to:
   * S. Grimme, M. Mueller, A. Hansen, J. Chem. Phys., 2023, 158, 124111.
     DOI: 10.1063/5.0137838
   
   with help from (in alphabetical order)
   P. Atkinson, C. Bannwarth, F. Bohle, G. Brandenburg, E. Caldeweyher
   M. Checinski, S. Dohm, S. Ehlert, S. Ehrlich, I. Gerasimov, C. Hölzer
   A. Katbashev, J. Kohn, J. Koopman, C. Lavigne, S. Lehtola, F. März, M. Müller,
   F. Musil, H. Neugebauer, J. Pisarek, C. Plett, P. Pracht, F. Pultar,
   J. Seibert, P. Shushkov, S. Spicher, M. Stahn, M. Steiner, T. Strunk,
   J. Stückrath, T. Rose, and J. Unsleber
   
 * started run on 2026/08/20 at 02:38:59.370     
   ID    Z sym.   atoms
    1   16 S      1
    2    8 O      2

           -------------------------------------------------
          |                Calculation Setup                |
           -------------------------------------------------

          program call               : /h/399/yunhengzou/micromamba/envs/el-agente/bin/xtb SO_guess.xyz --opt --gfn 2 -P 4 --chrg 0 --uhf 2
          coordinate file            : SO_guess.xyz
          omp threads                :                     4


           -------------------------------------------------
          |                 G F N 2 - x T B                 |
           -------------------------------------------------

        Reference                      10.1021/acs.jctc.8b01176
      * Hamiltonian:
        H0-scaling (s, p, d)           1.850000    2.230000    2.230000
        zeta-weighting                 0.500000
      * Dispersion:
        s8                             2.700000
        a1                             0.520000
        a2                             5.000000
        s9                             5.000000
      * Repulsion:
        kExp                           1.500000    1.000000
        rExp                           1.000000
      * Coulomb:
        alpha                          2.000000
        third order                    shell-resolved
        anisotropic                    true
        a3                             3.000000
        a5                             4.000000
        cn-shift                       1.200000
        cn-exp                         4.000000
        max-rad                        5.000000


          ...................................................
          :                      SETUP                      :
          :.................................................:
          :  # basis functions                  14          :
          :  # atomic orbitals                  13          :
          :  # shells                            5          :
          :  # electrons                        12          :
          :  max. iterations                   250          :
          :  Hamiltonian                  GFN2-xTB          :
          :  restarted?                      false          :
          :  GBSA solvation                  false          :
          :  PC potential                    false          :
          :  electronic temp.          300.0000000     K    :
          :  accuracy                    1.0000000          :
          :  -> integral cutoff          0.2500000E+02      :
          :  -> integral neglect         0.1000000E-07      :
          :  -> SCF convergence          0.1000000E-05 Eh   :
          :  -> wf. convergence          0.1000000E-03 e    :
          :  Broyden damping             0.4000000          :
          :  net charge                          0          :
          :  unpaired electrons                  2          :
          ...................................................

 iter      E             dE          RMSdq      gap      omega  full diag
   1     -7.2329200 -0.723292E+01  0.723E+00    5.22       0.0  T
   2     -7.2497128 -0.167928E-01  0.234E+00    5.18       1.0  T
   3     -7.2503531 -0.640278E-03  0.151E+00    5.23       1.0  T
   4     -7.2505584 -0.205268E-03  0.210E-01    5.23       1.0  T
   5     -7.2505164  0.420005E-04  0.232E-01    5.23       1.0  T
   6     -7.2505433 -0.268804E-04  0.164E-01    5.23       1.0  T
   7     -7.2505674 -0.241405E-04  0.772E-03    5.23       9.2  T
   8     -7.2505675 -0.517764E-07  0.379E-03    5.23      18.6  T
   9     -7.2505675 -0.111502E-07  0.232E-04    5.23     304.8  T
  10     -7.2505675 -0.452713E-10  0.314E-05    5.23    2254.7  T

   *** convergence criteria satisfied after 10 iterations ***

         #    Occupation            Energy/Eh            Energy/eV
      -------------------------------------------------------------
         1        2.0000           -0.7722937             -21.0152
         2        2.0000           -0.6754051             -18.3787
         3        2.0000           -0.5388383             -14.6625
         4        2.0000           -0.5308760             -14.4459
         5        2.0000           -0.5308760             -14.4459
         6        1.0000           -0.3742947             -10.1851
         7        1.0000           -0.3742947             -10.1851 (HOMO)
         8                         -0.1821804              -4.9574 (LUMO)
         9                         -0.0419584              -1.1417
        10                         -0.0419584              -1.1417
        11                          0.0657750               1.7898
        12                          0.0657750               1.7898
        13                          0.7402822              20.1441
      -------------------------------------------------------------
                  HL-Gap            0.1921143 Eh            5.2277 eV
             Fermi-level           -0.3654115 Eh           -9.9434 eV

 transition dipole moment (au) for excitation:           6           7
     X       Y       Z   
  -0.0000   0.0000  -0.0000  total (au/Debye):    0.000   0.000
 dE (eV)             :    0.000
 oscillator strength :  0.22754E-46

 SCC (total)                   0 d,  0 h,  0 min,  0.242 sec
 SCC setup                      ...        0 min,  0.021 sec (  8.821%)
 Dispersion                     ...        0 min,  0.023 sec (  9.618%)
 classical contributions        ...        0 min,  0.029 sec ( 12.144%)
 integral evaluation            ...        0 min,  0.063 sec ( 25.873%)
 iterations                     ...        0 min,  0.105 sec ( 43.264%)
 molecular gradient             ...        0 min,  0.000 sec (  0.103%)
 printout                       ...        0 min,  0.000 sec (  0.167%)

         :::::::::::::::::::::::::::::::::::::::::::::::::::::
         ::                     SUMMARY                     ::
         :::::::::::::::::::::::::::::::::::::::::::::::::::::
         :: total energy              -7.234824318103 Eh    ::
         :: gradient norm              0.017675185124 Eh/a0 ::
         :: HOMO-LUMO gap              5.227696120534 eV    ::
         ::.................................................::
         :: SCC energy                -7.250567462545 Eh    ::
         :: -> isotropic ES            0.017295258957 Eh    ::
         :: -> anisotropic ES          0.000107310843 Eh    ::
         :: -> anisotropic XC         -0.000737808739 Eh    ::
         :: -> dispersion             -0.000468186209 Eh    ::
         :: repulsion energy           0.015743144442 Eh    ::
         :: add. restraining           0.000000000000 Eh    ::
         :: total charge              -0.000000000000 e     ::
         :::::::::::::::::::::::::::::::::::::::::::::::::::::

      ----------------------------------------------------------- 
     |                   =====================                   |
     |                        A N C O P T                        |
     |                   =====================                   |
     |               Approximate Normal Coordinate               |
     |                Rational Function Optimizer                |
      ----------------------------------------------------------- 
      ----------------------------------------------------------- 
     |                   =====================                   |
     |                        A N C O P T                        |
     |                   =====================                   |
     |               Approximate Normal Coordinate               |
     |                Rational Function Optimizer                |
      ----------------------------------------------------------- 

          ...................................................
          :                      SETUP                      :
          :.................................................:
          :   optimization level            normal          :
          :   max. optcycles                   200          :
          :   ANC micro-cycles                  20          :
          :   degrees of freedom                 1          :
          :.................................................:
          :   RF solver                   davidson          :
          :   write xtbopt.log                true          :
          :   linear (good luck)              true          :
          :   energy convergence         0.5000000E-05 Eh   :
          :   grad. convergence          0.1000000E-02 Eh/α :
          :   maxmium RF displ.          1.0000000          :
          :   Hlow (freq-cutoff)         0.1000000E-01      :
          :   Hmax (freq-cutoff)         5.0000000          :
          :   S6 in model hess.         20.0000000          :
          ...................................................

generating ANC from exact Hessian ...
Using Lindh-Hessian (1995)
 Shifting diagonal of input Hessian by    0.0000000000000000     
 Lowest  eigenvalues of input Hessian
    0.000000    0.000000    0.000000    0.000000    0.000000    2.278473
 Highest eigenvalues
    0.000000    0.000000    0.000000    0.000000    0.000000    2.278473


........................................................................
.............................. CYCLE    1 ..............................
........................................................................

 iter      E             dE          RMSdq      gap      omega  full diag
   1     -7.2505675 -0.725057E+01  0.164E-07    5.23       0.0  T
   2     -7.2505675  0.000000E+00  0.907E-08    5.23  100000.0  T
   3     -7.2505675 -0.177636E-14  0.310E-08    5.23  100000.0  T
     SCC iter.                  ...        0 min,  0.245 sec
     gradient                   ...        0 min,  0.168 sec
 * total energy  :    -7.2348243 Eh     change       -0.9414691E-12 Eh
   gradient norm :     0.0176754 Eh/α   predicted     0.0000000E+00 (-100.00%)
   displ. norm   :     0.0077571 α      lambda       -0.1371090E-03
   maximum displ.:     0.0077571 α      in ANC's #1, #1, #1, ...

........................................................................
.............................. CYCLE    2 ..............................
........................................................................

 iter      E             dE          RMSdq      gap      omega  full diag
   1     -7.2514559 -0.725146E+01  0.795E-02    5.25       0.0  T
   2     -7.2514572 -0.122486E-05  0.520E-02    5.25       1.4  T
   3     -7.2514573 -0.865472E-07  0.224E-02    5.25       3.2  T
   4     -7.2514573 -0.426985E-07  0.186E-03    5.25      38.0  T
   5     -7.2514573 -0.439630E-09  0.739E-04    5.25      95.7  T
   6     -7.2514573 -0.910365E-10  0.512E-05    5.25    1381.7  T
     SCC iter.                  ...        0 min,  0.001 sec
     gradient                   ...        0 min,  0.000 sec
 * total energy  :    -7.2349315 Eh     change       -0.1071786E-03 Eh
   gradient norm :     0.0099131 Eh/α   predicted    -0.6855920E-04 ( -36.03%)
   displ. norm   :     0.0099055 α      lambda       -0.9819750E-04
   maximum displ.:     0.0099055 α      in ANC's #1, #1, #1, ...

........................................................................
.............................. CYCLE    3 ..............................
........................................................................

 iter      E             dE          RMSdq      gap      omega  full diag
   1     -7.2525569 -0.725256E+01  0.103E-01    5.28       0.0  T
   2     -7.2525590 -0.206490E-05  0.670E-02    5.28       1.1  T
   3     -7.2525591 -0.129919E-06  0.287E-02    5.28       2.5  T
   4     -7.2525592 -0.638298E-07  0.237E-03    5.28      29.9  T
   5     -7.2525592 -0.675163E-09  0.914E-04    5.28      77.4  T
   6     -7.2525592 -0.137580E-09  0.899E-05    5.28     786.7  T
     SCC iter.                  ...        0 min,  0.000 sec
     gradient                   ...        0 min,  0.000 sec
 * total energy  :    -7.2349790 Eh     change       -0.4749068E-04 Eh
   gradient norm :     0.0004009 Eh/α   predicted    -0.4910201E-04 (   3.39%)
   displ. norm   :     0.0005775 α      lambda       -0.1520033E-06
   maximum displ.:     0.0005775 α      in ANC's #1, #1, #1, ...

........................................................................
.............................. CYCLE    4 ..............................
........................................................................

 iter      E             dE          RMSdq      gap      omega  full diag
   1     -7.2524960 -0.725250E+01  0.606E-03    5.28       0.0  T
   2     -7.2524960 -0.722304E-08  0.394E-03    5.28      17.9  T
   3     -7.2524960 -0.459385E-09  0.170E-03    5.28      41.6  T
   4     -7.2524960 -0.217686E-09  0.139E-04    5.28     510.5  T
   5     -7.2524960 -0.229150E-11  0.516E-05    5.28    1371.2  T
     SCC iter.                  ...        0 min,  0.000 sec
     gradient                   ...        0 min,  0.000 sec
 * total energy  :    -7.2349790 Eh     change       -0.5413769E-07 Eh
   gradient norm :     0.0002133 Eh/α   predicted    -0.7717763E-07 (  42.56%)
   displ. norm   :     0.0002005 α      lambda       -0.2740265E-07
   maximum displ.:     0.0002005 α      in ANC's #1, #1, #1, ...

   *** GEOMETRY OPTIMIZATION CONVERGED AFTER 4 ITERATIONS ***

------------------------------------------------------------------------
 total energy gain   :        -0.0001547 Eh       -0.0971 kcal/mol
 total RMSD          :         0.0120810 a0        0.0064 Å
 total power (kW/mol):        -0.1015566 (step)   -0.6754 (real)
------------------------------------------------------------------------

 ANCopt (total)                0 d,  0 h,  0 min,  0.602 sec
 optimizer setup                ...        0 min,  0.000 sec (  0.037%)
 model hessian                  ...        0 min,  0.000 sec (  0.003%)
 ANC generation                 ...        0 min,  0.000 sec (  0.009%)
 coordinate transformation      ...        0 min,  0.000 sec (  0.002%)
 single point calculation       ...        0 min,  0.601 sec ( 99.865%)
 optimization log               ...        0 min,  0.000 sec (  0.020%)
 hessian update                 ...        0 min,  0.000 sec (  0.003%)
 rational function              ...        0 min,  0.000 sec (  0.027%)

================
 final structure:
================
2
 xtb: 6.7.1 (edcfbbe)
S            0.00639297557908        0.00000000000000        0.00000000000000
O            1.47360702442092        0.00000000000000        0.00000000000000

 Bond Distances (Angstroems)
 ---------------------------
S1-O2=1.4672         O2-S1=1.4672         
 S  O  Rav=1.4672 sigma=0.0000  Rmin=1.4672  Rmax=1.4672     1

 selected bond angles (degree)
 --------------------


 selected dihedral angles (degree)
 ---------------------------------

           -------------------------------------------------
          |                Final Singlepoint                |
           -------------------------------------------------

          ...................................................
          :                      SETUP                      :
          :.................................................:
          :  # basis functions                  14          :
          :  # atomic orbitals                  13          :
          :  # shells                            5          :
          :  # electrons                        12          :
          :  max. iterations                   250          :
          :  Hamiltonian                  GFN2-xTB          :
          :  restarted?                      false          :
          :  GBSA solvation                  false          :
          :  PC potential                    false          :
          :  electronic temp.          300.0000000     K    :
          :  accuracy                    1.0000000          :
          :  -> integral cutoff          0.2500000E+02      :
          :  -> integral neglect         0.1000000E-07      :
          :  -> SCF convergence          0.1000000E-05 Eh   :
          :  -> wf. convergence          0.1000000E-03 e    :
          :  Broyden damping             0.4000000          :
          :  net charge                          0          :
          :  unpaired electrons                  2          :
          ...................................................

 iter      E             dE          RMSdq      gap      omega  full diag
   1     -7.2524960 -0.725250E+01  0.202E-06    5.28       0.0  T
   2     -7.2524960 -0.266454E-14  0.125E-06    5.28   56463.9  T
   3     -7.2524960  0.888178E-15  0.355E-07    5.28  100000.0  T

   *** convergence criteria satisfied after 3 iterations ***

         #    Occupation            Energy/Eh            Energy/eV
      -------------------------------------------------------------
         1        2.0000           -0.7729602             -21.0333
         2        2.0000           -0.6760559             -18.3964
         3        2.0000           -0.5392030             -14.6725
         4        2.0000           -0.5332268             -14.5098
         5        2.0000           -0.5332268             -14.5098
         6        1.0000           -0.3723175             -10.1313
         7        1.0000           -0.3723175             -10.1313 (HOMO)
         8                         -0.1783960              -4.8544 (LUMO)
         9                         -0.0418011              -1.1375
        10                         -0.0418011              -1.1375
        11                          0.0702556               1.9118
        12                          0.0702556               1.9118
        13                          0.7812134              21.2579
      -------------------------------------------------------------
                  HL-Gap            0.1939216 Eh            5.2769 eV
             Fermi-level           -0.3640645 Eh           -9.9067 eV

 transition dipole moment (au) for excitation:           6           7
     X       Y       Z   
   0.0000   0.0000  -0.0000  total (au/Debye):    0.000   0.000
 dE (eV)             :    0.000
 oscillator strength :  0.10998E-46

 SCC (total)                   0 d,  0 h,  0 min,  0.049 sec
 SCC setup                      ...        0 min,  0.021 sec ( 44.024%)
 Dispersion                     ...        0 min,  0.000 sec (  0.023%)
 classical contributions        ...        0 min,  0.026 sec ( 53.491%)
 integral evaluation            ...        0 min,  0.000 sec (  0.419%)
 iterations                     ...        0 min,  0.000 sec (  0.688%)
 molecular gradient             ...        0 min,  0.000 sec (  0.510%)
 printout                       ...        0 min,  0.000 sec (  0.813%)

         :::::::::::::::::::::::::::::::::::::::::::::::::::::
         ::                     SUMMARY                     ::
         :::::::::::::::::::::::::::::::::::::::::::::::::::::
         :: total energy              -7.234979041516 Eh    ::
         :: gradient norm              0.000213148678 Eh/a0 ::
         :: HOMO-LUMO gap              5.276874575511 eV    ::
         ::.................................................::
         :: SCC energy                -7.252496026821 Eh    ::
         :: -> isotropic ES            0.016970636076 Eh    ::
         :: -> anisotropic ES          0.000112204628 Eh    ::
         :: -> anisotropic XC         -0.000823711577 Eh    ::
         :: -> dispersion             -0.000467782294 Eh    ::
         :: repulsion energy           0.017516985305 Eh    ::
         :: add. restraining           0.000000000000 Eh    ::
         :: total charge              -0.000000000000 e     ::
         :::::::::::::::::::::::::::::::::::::::::::::::::::::

           -------------------------------------------------
          |                Property Printout                |
           -------------------------------------------------

    * Orbital Energies and Occupations

         #    Occupation            Energy/Eh            Energy/eV
      -------------------------------------------------------------
         1        2.0000           -0.7729602             -21.0333
         2        2.0000           -0.6760559             -18.3964
         3        2.0000           -0.5392030             -14.6725
         4        2.0000           -0.5332268             -14.5098
         5        2.0000           -0.5332268             -14.5098
         6        1.0000           -0.3723175             -10.1313
         7        1.0000           -0.3723175             -10.1313 (HOMO)
         8                         -0.1783960              -4.8544 (LUMO)
         9                         -0.0418011              -1.1375
        10                         -0.0418011              -1.1375
        11                          0.0702556               1.9118
        12                          0.0702556               1.9118
        13                          0.7812134              21.2579
      -------------------------------------------------------------
                  HL-Gap            0.1939216 Eh            5.2769 eV
             Fermi-level           -0.3640645 Eh           -9.9067 eV

     #   Z          covCN         q      C6AA      α(0)
     1  16 S        0.859     0.311   127.216    19.078
     2   8 O        0.859    -0.311    19.974     5.992

 Mol. C6AA /au·bohr⁶  :        245.024666
 Mol. C8AA /au·bohr⁸  :       9711.772664
 Mol. α(0) /au        :         25.069746


Wiberg/Mayer (AO) data.
largest (>0.10) Wiberg bond orders for each atom

 ---------------------------------------------------------------------------
     #   Z sym  total        # sym  WBO       # sym  WBO       # sym  WBO
 ---------------------------------------------------------------------------
     1  16 S    2.164 --     2 O    2.164
     2   8 O    2.164 --     1 S    2.164
 ---------------------------------------------------------------------------

Topologies differ in total number of bonds
Writing topology from bond orders to xtbtopo.mol

molecular dipole:
                 x           y           z       tot (Debye)
 q only:       -0.861       0.000       0.000
   full:       -0.720       0.000      -0.000       1.829
molecular quadrupole (traceless):
                xx          xy          yy          xz          yz          zz
 q only:       -2.409       0.000       1.204       0.000       0.000       1.204
  q+dip:       -3.138       0.000       1.569      -0.000       0.000       1.569
   full:       -3.281       0.000       1.641      -0.000       0.000       1.641

           -------------------------------------------------
          |                Geometry Summary                 |
           -------------------------------------------------

      molecular mass/u    :       48.0641923
   center of mass at/Å    :        0.4947930       0.0000000       0.0000000
  moments of inertia/u·Å² :        0.0000000E+00   0.2297723E+02   0.2297723E+02
rotational constants/cm⁻¹ :             Infinity   0.7336670E+00   0.7336670E+00


optimized geometry written to: xtbopt.xyz


           -------------------------------------------------
          | TOTAL ENERGY               -7.234979041516 Eh   |
          | GRADIENT NORM               0.000213148678 Eh/α |
          | HOMO-LUMO GAP               5.276874575511 eV   |
           -------------------------------------------------

------------------------------------------------------------------------
 * finished run on 2026/08/20 at 02:39:00.526     
------------------------------------------------------------------------
 total:
 * wall-time:     0 d,  0 h,  0 min,  1.156 sec
 *  cpu-time:     0 d,  0 h,  0 min,  1.169 sec
 * ratio c/w:     1.011 speedup
 SCF:
 * wall-time:     0 d,  0 h,  0 min,  0.242 sec
 *  cpu-time:     0 d,  0 h,  0 min,  0.210 sec
 * ratio c/w:     0.870 speedup
 ANC optimizer:
 * wall-time:     0 d,  0 h,  0 min,  0.675 sec
 *  cpu-time:     0 d,  0 h,  0 min,  0.556 sec
 * ratio c/w:     0.825 speedup

