17
Properties=species:S:1:pos:R:3:forces:R:3:charge:R:1 energy:=T -27.841113124361=T gnorm:=T 0.000602866935=T xtb:=T 6.7.1=T (edcfbbe)=T energy=-758.0113208644303 free_energy=-758.0113208644303 dipole="-0.003321975114216991 -0.7243328431955853 0.024989267741259456" pbc="F F F"
C       -2.63727834      -0.12858251       0.44428113       0.00601625      -0.00205248       0.02751149      -0.11559274
C       -1.28109252       0.24919214      -0.03163117      -0.00823534       0.00626017      -0.01824036       0.00260136
C       -0.63644721      -0.21697895      -1.17003185       0.01758961      -0.00756885       0.01269863      -0.06837813
C        0.74054829      -0.19648169      -1.10857624      -0.00458367      -0.00802255      -0.01796981       0.00091663
N        1.22036754      -0.10178993       0.14203262       0.00993144       0.01576522       0.00120890       0.09966813
C        2.55116598      -0.49552798       0.52530778       0.00334607      -0.01944406       0.00884475      -0.06052421
N        0.38987554       0.27123501       1.11081570      -0.01042869       0.01353287       0.00624233      -0.30714971
S       -0.50427881       1.69240233       0.71698021       0.01782551       0.01657826      -0.02357665       0.47287978
O        0.20386579       2.42771211      -0.32728924       0.00464363       0.00157041       0.01040793      -0.49788240
H       -2.83370400      -1.19113686       0.31323673       0.01051651      -0.01194766      -0.02616368       0.05435357
H       -2.74280476       0.12062052       1.49789909       0.00938581       0.00471936      -0.01137895       0.05906109
H       -3.38385501       0.43780565      -0.11598706      -0.02203819      -0.01766172       0.02989289       0.06266279
H       -1.16905204      -0.67151723      -1.98637239       0.01380632       0.00068520       0.00823703       0.04743725
H        1.41777094      -0.42790295      -1.90994470      -0.00441573       0.00892545      -0.00761036       0.04052179
H        2.51990380      -0.83774176       1.55958985      -0.02218066      -0.01113887      -0.02331004       0.08068617
H        3.22911216       0.35996351       0.46383864       0.00604474       0.00486508       0.00058422       0.06790076
H        2.91590265      -1.29127143      -0.12414912      -0.02722361       0.00493417       0.02262168       0.06083786
