17
 xtb: 6.7.1 (edcfbbe)
C           -2.58539534788467       -0.14612909424713        0.47829310893545
C           -1.18827388182632        0.19987190303166        0.05864226216985
C           -0.61319240445131       -0.20531980773184       -1.19041392649320
C            0.73712330642066       -0.21937750162456       -1.13500429177978
N            1.21370779128539       -0.10677166102101        0.12998847111450
C            2.53820328589135       -0.48371283818761        0.54250798545858
N            0.24749168884645        0.18635630608852        1.04823186100178
S           -0.51543152046055        1.77340595174735        0.71545496804493
O            0.22270339351359        2.43967525984133       -0.33772307261750
H           -2.82464792417917       -1.19498264962095        0.32227609608243
H           -2.74412534578167        0.11891029929640        1.50516803110270
H           -3.35255664946745        0.43812530741658       -0.12199172096725
H           -1.18162476417899       -0.61858747684889       -2.00560981002457
H            1.42077705160370       -0.42406980305682       -1.91694973149785
H            2.51436172358970       -0.83615821381609        1.56398692096706
H            3.22640590332748        0.36310676211873        0.47020131284317
H            2.91500679777053       -1.28825430015638       -0.11744009923634
