 Entering Gaussian System
 *********************************************
 Gaussian 98:
 frequency output generated by the xtb code
 *********************************************
                         Standard orientation:
 --------------------------------------------------------------------
  Center     Atomic     Atomic              Coordinates (Angstroms)
  Number     Number      Type              X           Y           Z
 --------------------------------------------------------------------
    1          8             0        0.828400    2.446033   -0.413387
    2         16             0        0.296121    2.633843    0.956132
    3          7             0        0.672921   -0.604336    0.054114
    4          6             0        1.656792   -0.526039    1.089753
    5          7             0        0.938887   -1.222976   -1.077463
    6          6             0       -0.142398   -1.110550   -1.837506
    7          6             0       -1.137926   -0.400941   -1.177656
    8          6             0       -0.589325   -0.090007    0.069882
    9          6             0       -1.144168    0.654437    1.156881
   10          1             0        1.310779   -1.028011    1.996180
   11          1             0        2.555101   -1.017693    0.723221
   12          1             0        1.880613    0.517717    1.321276
   13          1             0       -0.157515   -1.539645   -2.818867
   14          1             0       -2.115897   -0.148738   -1.532652
   15          1             0       -2.228517    0.700453    1.152003
   16          1             0       -1.085120    2.102373    0.881524
   17          1             0       -0.733457    0.476655    2.139655
 --------------------------------------------------------------------
     1 basis functions        1 primitive gaussians
     1 alpha electrons        1 beta electrons

 Harmonic frequencies (cm**-1), IR intensities (km*mol⁻¹),
 Raman scattering activities (A**4/amu), Raman depolarization ratios,
 reduced masses (AMU), force constants (mDyne/A) and normal coordinates:
                      1                      2                      3
                        a                      a                      a 
 Frequencies -- -1270.4290                40.5319                61.0337
 Red. masses --     2.0873                15.0282                14.8732
 Frc consts  --     0.0000                 0.0000                 0.0000
 IR Inten    --    78.5518                 0.4179                 4.3774
 Raman Activ --     0.0000                 0.0000                 0.0000
 Depolar     --     0.0000                 0.0000                 0.0000
 Atom AN      X      Y      Z        X      Y      Z        X      Y      Z
   1   8     0.00  -0.01  -0.02     0.14   0.69   0.15     0.52  -0.43   0.36
   2  16     0.07   0.08   0.02    -0.04   0.07   0.23    -0.18   0.16   0.06
   3   7    -0.01   0.00   0.00    -0.01  -0.11  -0.07     0.01   0.16  -0.11
   4   6     0.00   0.00   0.00     0.03   0.01  -0.12     0.08   0.29  -0.18
   5   7    -0.01  -0.00  -0.00    -0.08  -0.31   0.01    -0.02   0.08  -0.07
   6   6     0.01  -0.01  -0.00    -0.09  -0.35   0.03    -0.10  -0.14   0.02
   7   6     0.00  -0.00   0.01    -0.03  -0.19  -0.04    -0.13  -0.20   0.03
   8   6     0.02  -0.02  -0.04     0.03  -0.03  -0.12    -0.06  -0.01  -0.04
   9   6    -0.10   0.22  -0.02     0.06   0.11  -0.17    -0.08   0.01  -0.07
  10   1     0.00  -0.00  -0.00     0.01   0.06  -0.01     0.05   0.09  -0.04
  11   1    -0.00  -0.00  -0.00    -0.00  -0.03  -0.02     0.03   0.10  -0.06
  12   1     0.00  -0.00  -0.00     0.03   0.01  -0.09     0.01   0.09  -0.07
  13   1     0.00   0.00  -0.00    -0.04  -0.15   0.03    -0.04  -0.07   0.02
  14   1     0.00  -0.00   0.00    -0.01  -0.06  -0.01    -0.06  -0.10   0.03
  15   1    -0.06  -0.21   0.05     0.02   0.03  -0.06    -0.02  -0.00  -0.01
  16   1    -0.04  -0.92   0.17    -0.00   0.01  -0.04    -0.01  -0.00  -0.10
  17   1    -0.01   0.01  -0.01    -0.00   0.02  -0.04    -0.01   0.03  -0.02
                      4                      5                      6
                        a                      a                      a 
 Frequencies --   107.0733               140.7888               169.6179
 Red. masses --    20.1435                 8.8343                 8.4008
 Frc consts  --     0.0000                 0.0000                 0.0000
 IR Inten    --     1.1801                 5.6317                 6.5537
 Raman Activ --     0.0000                 0.0000                 0.0000
 Depolar     --     0.0000                 0.0000                 0.0000
 Atom AN      X      Y      Z        X      Y      Z        X      Y      Z
   1   8     0.16  -0.04   0.12     0.13   0.20  -0.06    -0.14  -0.15   0.04
   2  16    -0.42   0.50  -0.15     0.23   0.26  -0.05    -0.14  -0.23   0.07
   3   7     0.06  -0.21  -0.00    -0.05   0.00  -0.01     0.07   0.09  -0.03
   4   6     0.07  -0.43   0.01    -0.16  -0.06   0.10     0.10   0.01  -0.05
   5   7    -0.05  -0.16  -0.06     0.06   0.16  -0.06    -0.08  -0.20   0.09
   6   6    -0.04   0.08  -0.04     0.02   0.00  -0.04    -0.05  -0.13   0.08
   7   6     0.07   0.16   0.03    -0.11  -0.24   0.02     0.09   0.19  -0.03
   8   6     0.13  -0.03   0.06    -0.14  -0.21   0.05     0.14   0.26  -0.10
   9   6     0.20  -0.05   0.11    -0.11  -0.26   0.04     0.11   0.32  -0.09
  10   1     0.02  -0.17  -0.02     0.08  -0.37  -0.12     0.19  -0.34  -0.14
  11   1     0.01  -0.12  -0.03     0.10   0.33  -0.10     0.15   0.34  -0.18
  12   1     0.03  -0.14   0.05    -0.35  -0.02   0.32    -0.25  -0.00   0.26
  13   1    -0.03   0.05  -0.02     0.03   0.02  -0.02    -0.04  -0.09   0.05
  14   1     0.03   0.10   0.02    -0.05  -0.11   0.02     0.04   0.09  -0.02
  15   1     0.06  -0.06   0.09    -0.02  -0.02   0.02     0.03   0.04  -0.04
  16   1    -0.02  -0.03  -0.07     0.06  -0.01   0.01    -0.05   0.03   0.01
  17   1     0.12   0.02   0.01    -0.01  -0.04   0.01    -0.00   0.04  -0.02
                      7                      8                      9
                        a                      a                      a 
 Frequencies --   184.2108               231.4247               277.4838
 Red. masses --    20.3319                10.7107                 8.6350
 Frc consts  --     0.0000                 0.0000                 0.0000
 IR Inten    --    11.2316                 2.6187                 3.6724
 Raman Activ --     0.0000                 0.0000                 0.0000
 Depolar     --     0.0000                 0.0000                 0.0000
 Atom AN      X      Y      Z        X      Y      Z        X      Y      Z
   1   8     0.37   0.29  -0.03     0.20   0.11  -0.01    -0.08  -0.02  -0.02
   2  16    -0.27  -0.51  -0.26    -0.05  -0.11  -0.11     0.08   0.11   0.04
   3   7     0.03   0.09   0.04    -0.19  -0.41   0.23     0.03  -0.00   0.13
   4   6     0.01  -0.13   0.07     0.15   0.32  -0.15     0.38  -0.29  -0.18
   5   7     0.05   0.26  -0.07    -0.11  -0.19   0.12     0.02   0.10   0.06
   6   6    -0.02   0.17   0.04     0.06   0.22  -0.06     0.03   0.04   0.06
   7   6    -0.09  -0.07   0.20     0.08   0.26  -0.07     0.01  -0.06   0.11
   8   6    -0.02  -0.09   0.15    -0.09  -0.16   0.11    -0.02  -0.03   0.13
   9   6     0.07   0.26   0.02    -0.10  -0.14   0.07    -0.48   0.10  -0.22
  10   1    -0.01  -0.08  -0.01     0.23   0.10   0.03     0.19  -0.11  -0.04
  11   1    -0.00  -0.04   0.00     0.08   0.22  -0.12     0.04  -0.11  -0.19
  12   1     0.03  -0.05   0.07    -0.10   0.15  -0.13     0.19  -0.11  -0.03
  13   1    -0.01   0.08  -0.01     0.04   0.13  -0.05     0.02   0.03   0.01
  14   1    -0.04  -0.05   0.09     0.06   0.16  -0.05    -0.00  -0.03   0.04
  15   1     0.01   0.02   0.03    -0.03  -0.02   0.01    -0.13   0.08  -0.27
  16   1    -0.07  -0.05  -0.14     0.00  -0.04  -0.04    -0.01   0.07  -0.01
  17   1     0.01   0.11   0.02    -0.03  -0.02   0.02    -0.31   0.07   0.01
                     10                     11                     12
                        a                      a                      a 
 Frequencies --   373.3197               396.6995               617.0028
 Red. masses --    12.1819                 8.7375                11.7386
 Frc consts  --     0.0000                 0.0000                 0.0000
 IR Inten    --    10.6151                 1.5302                 5.8207
 Raman Activ --     0.0000                 0.0000                 0.0000
 Depolar     --     0.0000                 0.0000                 0.0000
 Atom AN      X      Y      Z        X      Y      Z        X      Y      Z
   1   8     0.22   0.17  -0.06    -0.00  -0.01  -0.01     0.01  -0.00  -0.00
   2  16    -0.03  -0.12  -0.16     0.00   0.02   0.00    -0.02   0.00  -0.01
   3   7     0.12   0.38  -0.07     0.31  -0.18  -0.15    -0.12  -0.29   0.12
   4   6     0.07  -0.03   0.01    -0.09   0.15   0.22    -0.02  -0.03   0.00
   5   7    -0.09  -0.08   0.13    -0.03  -0.13  -0.30     0.23   0.52  -0.23
   6   6    -0.11  -0.13   0.14    -0.23   0.07  -0.02    -0.18  -0.45   0.20
   7   6     0.06   0.26  -0.06     0.02   0.12   0.26     0.12   0.28  -0.12
   8   6     0.07   0.23  -0.06     0.34  -0.07   0.13    -0.03  -0.04   0.02
   9   6    -0.28  -0.50   0.17    -0.14  -0.06  -0.16     0.03   0.01   0.03
  10   1    -0.03  -0.03  -0.03    -0.15   0.09   0.04     0.03   0.01   0.03
  11   1    -0.01  -0.06  -0.01     0.07   0.08   0.25    -0.00   0.00  -0.01
  12   1     0.09  -0.04   0.06    -0.15   0.08   0.04    -0.03   0.01  -0.04
  13   1    -0.06  -0.12   0.08    -0.15   0.04  -0.01    -0.10  -0.23   0.10
  14   1     0.03   0.11  -0.02    -0.01   0.08   0.16     0.06   0.14  -0.07
  15   1    -0.08  -0.17   0.03    -0.04  -0.01  -0.29     0.01   0.06  -0.02
  16   1    -0.02  -0.06   0.05     0.01  -0.01  -0.01     0.02  -0.02   0.01
  17   1    -0.05  -0.15   0.03    -0.25   0.02   0.05    -0.03  -0.06   0.01
                     13                     14                     15
                        a                      a                      a 
 Frequencies --   628.6942               656.7202               725.8381
 Red. masses --    11.2969                10.5798                 4.2769
 Frc consts  --     0.0000                 0.0000                 0.0000
 IR Inten    --     1.0186                11.2072                17.4086
 Raman Activ --     0.0000                 0.0000                 0.0000
 Depolar     --     0.0000                 0.0000                 0.0000
 Atom AN      X      Y      Z        X      Y      Z        X      Y      Z
   1   8    -0.05  -0.02   0.01     0.06   0.02   0.01     0.05   0.00  -0.02
   2  16     0.02   0.02   0.04    -0.02  -0.00  -0.06    -0.11   0.02  -0.05
   3   7     0.12   0.33  -0.25    -0.13  -0.13  -0.18    -0.04   0.12   0.02
   4   6    -0.08   0.03  -0.12    -0.31  -0.03  -0.34    -0.04   0.01  -0.05
   5   7     0.02  -0.16   0.02     0.19  -0.10  -0.08    -0.05   0.02   0.15
   6   6     0.03  -0.13   0.01     0.21  -0.05  -0.04     0.01   0.07   0.07
   7   6     0.21   0.23  -0.09     0.24  -0.12   0.18    -0.09   0.03  -0.04
   8   6    -0.25  -0.57   0.35     0.08   0.30   0.15    -0.01  -0.14  -0.04
   9   6    -0.02   0.15   0.08    -0.17   0.14   0.42     0.39  -0.04   0.02
  10   1    -0.10  -0.01  -0.07    -0.09   0.01  -0.09     0.00  -0.01  -0.01
  11   1    -0.02  -0.02  -0.00    -0.07   0.00  -0.07    -0.04  -0.02  -0.06
  12   1     0.01  -0.01   0.02    -0.11   0.00  -0.11     0.03  -0.01   0.00
  13   1    -0.01  -0.02  -0.01    -0.01   0.00  -0.02     0.04   0.01   0.02
  14   1     0.11   0.16  -0.09     0.06  -0.10   0.01    -0.05  -0.05   0.01
  15   1    -0.01   0.09   0.03    -0.05   0.05  -0.03     0.11   0.33  -0.39
  16   1     0.02  -0.00  -0.09    -0.04   0.05   0.14     0.15  -0.14   0.17
  17   1    -0.03   0.16   0.05    -0.19  -0.05   0.17    -0.36  -0.49   0.11
                     16                     17                     18
                        a                      a                      a 
 Frequencies --   778.8413               798.0927               849.4250
 Red. masses --     9.8465                 3.2507                 3.3578
 Frc consts  --     0.0000                 0.0000                 0.0000
 IR Inten    --     2.7485                 7.2156                 1.4806
 Raman Activ --     0.0000                 0.0000                 0.0000
 Depolar     --     0.0000                 0.0000                 0.0000
 Atom AN      X      Y      Z        X      Y      Z        X      Y      Z
   1   8    -0.03  -0.01  -0.02    -0.01  -0.00  -0.00    -0.00  -0.00  -0.00
   2  16     0.03  -0.00   0.05     0.01  -0.00   0.01    -0.00   0.00   0.01
   3   7    -0.09   0.00  -0.03    -0.01  -0.04   0.01    -0.01  -0.03   0.01
   4   6    -0.35  -0.03  -0.35    -0.02  -0.01  -0.02     0.00  -0.00   0.00
   5   7     0.14   0.07   0.24    -0.00  -0.05   0.03    -0.00  -0.01   0.00
   6   6     0.04   0.13   0.37     0.03   0.07   0.00     0.16   0.37  -0.16
   7   6    -0.04   0.08   0.22     0.16   0.37  -0.14    -0.06  -0.12   0.05
   8   6     0.18  -0.05  -0.01    -0.02  -0.07   0.03    -0.02  -0.04   0.02
   9   6     0.13  -0.21  -0.36    -0.01  -0.01  -0.04     0.01  -0.00   0.00
  10   1    -0.06  -0.02  -0.09    -0.00  -0.00  -0.01    -0.00  -0.00  -0.00
  11   1    -0.13  -0.02  -0.16    -0.00   0.00  -0.01     0.00  -0.00   0.00
  12   1    -0.07  -0.01  -0.10    -0.01  -0.00  -0.01     0.00  -0.00   0.00
  13   1     0.00   0.06   0.10    -0.08  -0.17   0.09    -0.31  -0.74   0.33
  14   1     0.01   0.11   0.08    -0.31  -0.73   0.33     0.07   0.16  -0.07
  15   1     0.04  -0.19  -0.10    -0.00  -0.01   0.03     0.00   0.02  -0.00
  16   1     0.01  -0.04  -0.16     0.00  -0.01  -0.05     0.01  -0.01  -0.03
  17   1     0.11   0.15  -0.10     0.04   0.05  -0.02    -0.00   0.02   0.01
                     19                     20                     21
                        a                      a                      a 
 Frequencies --   904.2039               936.9201               984.5523
 Red. masses --    10.6675                 3.9612                 3.8441
 Frc consts  --     0.0000                 0.0000                 0.0000
 IR Inten    --    15.7273                39.7960                 3.3769
 Raman Activ --     0.0000                 0.0000                 0.0000
 Depolar     --     0.0000                 0.0000                 0.0000
 Atom AN      X      Y      Z        X      Y      Z        X      Y      Z
   1   8     0.01   0.00   0.03    -0.02  -0.02  -0.18     0.01  -0.00  -0.04
   2  16    -0.00   0.00  -0.04    -0.07  -0.02   0.18    -0.03   0.00   0.03
   3   7     0.14  -0.12  -0.18     0.02  -0.03  -0.03    -0.02   0.04   0.03
   4   6     0.10  -0.03   0.01     0.03  -0.02   0.01    -0.06   0.03   0.00
   5   7     0.41  -0.24  -0.13     0.03  -0.03  -0.02     0.03  -0.06  -0.07
   6   6     0.07   0.18   0.45     0.00  -0.00   0.03     0.03  -0.02  -0.06
   7   6    -0.37   0.14  -0.03    -0.04  -0.02  -0.02     0.24  -0.01   0.26
   8   6    -0.23  -0.00  -0.14     0.01   0.20  -0.04    -0.06  -0.00   0.01
   9   6    -0.12   0.09   0.02    -0.03  -0.20   0.14    -0.19   0.04  -0.24
  10   1    -0.02   0.01  -0.00    -0.01   0.00  -0.00     0.03  -0.02   0.00
  11   1     0.07   0.01   0.09     0.03   0.01   0.04    -0.05  -0.01  -0.05
  12   1    -0.01   0.00   0.00    -0.01   0.00  -0.01     0.05  -0.01   0.02
  13   1    -0.12   0.11   0.10    -0.00   0.04  -0.01    -0.16   0.05  -0.04
  14   1    -0.05  -0.08  -0.25     0.01  -0.04  -0.08     0.03   0.13   0.28
  15   1    -0.03   0.07   0.13     0.02   0.51   0.01    -0.03   0.32   0.34
  16   1    -0.02   0.04   0.10     0.30  -0.27  -0.54     0.10  -0.03  -0.06
  17   1     0.02  -0.14  -0.04    -0.01   0.28   0.09     0.22  -0.51  -0.26
                     22                     23                     24
                        a                      a                      a 
 Frequencies --  1025.6890              1066.0120              1088.2848
 Red. masses --     4.9708                 5.2661                16.0716
 Frc consts  --     0.0000                 0.0000                 0.0000
 IR Inten    --    25.3760                33.9026               125.2005
 Raman Activ --     0.0000                 0.0000                 0.0000
 Depolar     --     0.0000                 0.0000                 0.0000
 Atom AN      X      Y      Z        X      Y      Z        X      Y      Z
   1   8     0.05  -0.00  -0.08    -0.09   0.02   0.21     0.24  -0.08  -0.64
   2  16    -0.04  -0.00   0.04     0.07  -0.01  -0.14    -0.15   0.06   0.45
   3   7     0.17  -0.11  -0.10     0.00  -0.02  -0.01     0.02   0.04  -0.05
   4   6     0.12  -0.17  -0.26    -0.08   0.10   0.08    -0.07  -0.04   0.11
   5   7    -0.17   0.18   0.24     0.18  -0.13  -0.12     0.08  -0.05  -0.06
   6   6     0.02   0.01   0.03     0.13  -0.07  -0.04     0.02  -0.02  -0.02
   7   6    -0.09   0.01  -0.05    -0.28   0.10  -0.05    -0.10   0.03  -0.03
   8   6     0.02  -0.01   0.01     0.01  -0.04  -0.13    -0.01  -0.04  -0.01
   9   6    -0.09   0.06  -0.01    -0.05   0.01   0.13     0.00   0.14   0.07
  10   1    -0.25   0.08  -0.10     0.09  -0.05   0.02     0.17   0.02   0.11
  11   1     0.26   0.07   0.36    -0.13  -0.04  -0.16    -0.05   0.03  -0.11
  12   1    -0.29   0.04  -0.11     0.15  -0.03   0.07     0.00   0.01  -0.10
  13   1     0.43  -0.15   0.07     0.39  -0.14   0.03     0.10  -0.05   0.01
  14   1    -0.06   0.09   0.14    -0.20   0.31   0.52    -0.06   0.07   0.10
  15   1    -0.02   0.11   0.14    -0.01   0.07   0.02    -0.02  -0.27   0.00
  16   1     0.01   0.02   0.09    -0.00  -0.01  -0.06    -0.06   0.10  -0.09
  17   1     0.05  -0.09  -0.05    -0.06   0.10   0.07    -0.08  -0.14   0.03
                     25                     26                     27
                        a                      a                      a 
 Frequencies --  1099.9712              1102.6869              1141.4466
 Red. masses --     3.1281                 5.2141                 4.4372
 Frc consts  --     0.0000                 0.0000                 0.0000
 IR Inten    --    60.1965                25.8568                 4.8196
 Raman Activ --     0.0000                 0.0000                 0.0000
 Depolar     --     0.0000                 0.0000                 0.0000
 Atom AN      X      Y      Z        X      Y      Z        X      Y      Z
   1   8     0.15  -0.02  -0.16    -0.10   0.03   0.22    -0.00   0.00   0.02
   2  16    -0.14  -0.02   0.06     0.08  -0.01  -0.14    -0.01  -0.01  -0.02
   3   7     0.05   0.05  -0.01     0.07   0.21  -0.09     0.19  -0.07  -0.01
   4   6    -0.08  -0.06   0.06    -0.13  -0.36   0.14    -0.20   0.10   0.06
   5   7     0.06  -0.02   0.01    -0.01   0.01   0.00    -0.22   0.01  -0.17
   6   6    -0.01  -0.00  -0.02    -0.00  -0.01   0.00    -0.10   0.08   0.08
   7   6     0.01  -0.01  -0.03     0.01  -0.00   0.01    -0.01   0.05   0.11
   8   6    -0.00  -0.01  -0.00    -0.01   0.01  -0.00     0.22  -0.04   0.12
   9   6    -0.03  -0.16  -0.09     0.00   0.01   0.01    -0.10   0.02  -0.05
  10   1     0.13   0.03   0.09     0.39   0.21   0.35     0.13  -0.06   0.04
  11   1    -0.03   0.04  -0.09     0.08   0.19  -0.06    -0.17  -0.03  -0.23
  12   1    -0.03   0.02  -0.11    -0.29   0.09  -0.46     0.14  -0.02   0.01
  13   1    -0.08   0.02  -0.01    -0.01  -0.01   0.01     0.51  -0.17   0.10
  14   1    -0.02   0.05   0.10     0.00  -0.01  -0.00     0.10  -0.22  -0.42
  15   1     0.02   0.39  -0.04    -0.00  -0.02   0.02    -0.02   0.13   0.11
  16   1     0.00   0.00   0.67     0.01  -0.03  -0.15     0.02   0.00   0.05
  17   1     0.20   0.40  -0.04    -0.03  -0.07   0.01     0.08  -0.08  -0.07
                     28                     29                     30
                        a                      a                      a 
 Frequencies --  1214.8898              1351.2803              1369.6186
 Red. masses --     9.9633                11.3023                11.3678
 Frc consts  --     0.0000                 0.0000                 0.0000
 IR Inten    --     6.6722                32.3124                57.7199
 Raman Activ --     0.0000                 0.0000                 0.0000
 Depolar     --     0.0000                 0.0000                 0.0000
 Atom AN      X      Y      Z        X      Y      Z        X      Y      Z
   1   8     0.01  -0.01  -0.02    -0.00   0.00   0.00     0.02  -0.01  -0.04
   2  16    -0.01  -0.00   0.01     0.01   0.01  -0.00     0.00   0.02   0.03
   3   7    -0.32   0.06  -0.17     0.06  -0.24  -0.49     0.07   0.18   0.45
   4   6     0.18  -0.03   0.11     0.02   0.08   0.21    -0.06  -0.06  -0.19
   5   7    -0.06  -0.09  -0.27    -0.32   0.19   0.14    -0.31  -0.07  -0.44
   6   6     0.19  -0.06   0.04     0.05   0.12   0.31     0.27   0.00   0.27
   7   6     0.12   0.13   0.41     0.31  -0.14  -0.02     0.09  -0.03   0.01
   8   6    -0.40   0.19   0.07    -0.13  -0.06  -0.29     0.01  -0.12  -0.28
   9   6     0.15  -0.14  -0.15     0.01   0.02   0.06     0.05  -0.02   0.00
  10   1     0.02   0.02   0.03     0.10  -0.10   0.01    -0.05   0.10   0.02
  11   1     0.11   0.03   0.14    -0.05  -0.01  -0.07     0.04   0.02   0.05
  12   1     0.00   0.00   0.03     0.14  -0.00  -0.03    -0.09  -0.01   0.06
  13   1     0.29  -0.10   0.05    -0.05   0.06   0.09    -0.04   0.05   0.06
  14   1     0.07  -0.03  -0.02     0.06   0.04   0.16     0.02   0.01   0.04
  15   1     0.04  -0.09  -0.25    -0.01   0.01   0.11     0.00   0.03   0.20
  16   1     0.03  -0.03   0.03    -0.05   0.02   0.00    -0.08   0.03   0.03
  17   1     0.09   0.06  -0.05    -0.15   0.08   0.10    -0.21   0.10   0.12
                     31                     32                     33
                        a                      a                      a 
 Frequencies --  1387.6564              1396.8528              1408.2033
 Red. masses --     6.5888                 8.5246                 4.5520
 Frc consts  --     0.0000                 0.0000                 0.0000
 IR Inten    --    23.9241                20.1498                 9.5402
 Raman Activ --     0.0000                 0.0000                 0.0000
 Depolar     --     0.0000                 0.0000                 0.0000
 Atom AN      X      Y      Z        X      Y      Z        X      Y      Z
   1   8    -0.00   0.00   0.00    -0.00  -0.00   0.00    -0.01   0.00   0.01
   2  16     0.00  -0.00  -0.00     0.01   0.01  -0.00    -0.00  -0.01  -0.00
   3   7     0.33  -0.11   0.05     0.30  -0.11   0.01     0.25  -0.03   0.13
   4   6    -0.35   0.02  -0.23     0.07   0.03   0.11     0.04   0.03   0.06
   5   7    -0.13   0.10   0.10    -0.09   0.10   0.16    -0.17   0.01  -0.13
   6   6     0.20  -0.13  -0.12     0.27  -0.23  -0.27     0.10   0.03   0.15
   7   6    -0.12   0.10   0.11    -0.22   0.24   0.35     0.06  -0.08  -0.14
   8   6    -0.17   0.04  -0.06    -0.17   0.02  -0.13    -0.13   0.02  -0.02
   9   6    -0.02   0.02   0.07     0.06  -0.04  -0.08    -0.12   0.09   0.25
  10   1     0.34  -0.05   0.09    -0.20  -0.04  -0.09    -0.17  -0.08  -0.10
  11   1     0.16   0.12   0.33    -0.17  -0.10  -0.29    -0.13  -0.09  -0.19
  12   1     0.38  -0.12   0.12    -0.20   0.08  -0.14    -0.18   0.08  -0.17
  13   1    -0.12   0.03  -0.06    -0.12   0.00  -0.11    -0.05   0.04   0.04
  14   1    -0.02  -0.00  -0.03    -0.02  -0.05  -0.12    -0.01   0.05   0.09
  15   1    -0.00  -0.03  -0.18     0.01  -0.01   0.14    -0.01  -0.04  -0.51
  16   1     0.02  -0.00  -0.02    -0.03   0.01   0.01     0.06  -0.01  -0.07
  17   1     0.12  -0.01  -0.05    -0.16   0.05   0.07     0.45  -0.09  -0.18
                     34                     35                     36
                        a                      a                      a 
 Frequencies --  1444.6743              1450.9942              1461.3323
 Red. masses --     7.5301                 4.1422                 3.2354
 Frc consts  --     0.0000                 0.0000                 0.0000
 IR Inten    --    27.2826                 6.8395                 4.4665
 Raman Activ --     0.0000                 0.0000                 0.0000
 Depolar     --     0.0000                 0.0000                 0.0000
 Atom AN      X      Y      Z        X      Y      Z        X      Y      Z
   1   8     0.00   0.00   0.00    -0.00   0.00   0.01    -0.00   0.00   0.01
   2  16    -0.01  -0.01  -0.00    -0.01  -0.00  -0.01     0.00  -0.00  -0.01
   3   7     0.33  -0.07   0.11     0.21  -0.06   0.12     0.09   0.06   0.20
   4   6    -0.03   0.05  -0.18    -0.09  -0.16   0.03    -0.10   0.11   0.08
   5   7     0.14  -0.04   0.03     0.10  -0.04   0.01     0.11  -0.07  -0.06
   6   6    -0.32   0.12  -0.04    -0.21   0.08  -0.03    -0.17   0.07  -0.01
   7   6     0.20  -0.10  -0.04     0.13  -0.06  -0.02     0.09  -0.05  -0.03
   8   6    -0.40   0.18   0.01    -0.26   0.12   0.00    -0.16   0.08   0.03
   9   6     0.10  -0.03  -0.08     0.06  -0.02  -0.05     0.07  -0.04  -0.08
  10   1     0.21   0.12   0.13    -0.39   0.22  -0.02     0.04  -0.55  -0.29
  11   1    -0.18  -0.33   0.01     0.15   0.52  -0.32     0.05  -0.06   0.24
  12   1    -0.30   0.01   0.28     0.33  -0.08  -0.04     0.11   0.10  -0.55
  13   1     0.11  -0.04   0.02     0.07  -0.02   0.01     0.07  -0.02   0.01
  14   1     0.04   0.01   0.07     0.03   0.01   0.04     0.02   0.00   0.02
  15   1     0.02  -0.08   0.03     0.01  -0.06   0.01     0.01  -0.03   0.10
  16   1     0.05  -0.02   0.00     0.04  -0.01   0.00     0.01  -0.01   0.01
  17   1    -0.11   0.04   0.04    -0.06   0.01   0.02    -0.13   0.03   0.05
                     37                     38                     39
                        a                      a                      a 
 Frequencies --  1508.7290              1641.3022              2969.6963
 Red. masses --    10.8652                 2.4381                 1.9512
 Frc consts  --     0.0000                 0.0000                 0.0000
 IR Inten    --    54.2013                25.3174                12.5164
 Raman Activ --     0.0000                 0.0000                 0.0000
 Depolar     --     0.0000                 0.0000                 0.0000
 Atom AN      X      Y      Z        X      Y      Z        X      Y      Z
   1   8     0.00  -0.01  -0.02    -0.00   0.01   0.04    -0.00   0.00   0.00
   2  16     0.03   0.02   0.02    -0.11  -0.04  -0.04     0.00  -0.00  -0.00
   3   7    -0.09   0.08   0.09    -0.05   0.02   0.02     0.00   0.00  -0.00
   4   6     0.02  -0.02  -0.04     0.01  -0.00  -0.00     0.10   0.24  -0.13
   5   7     0.20  -0.03   0.13     0.00  -0.00   0.00     0.00   0.00   0.00
   6   6    -0.31   0.07  -0.14    -0.01   0.00  -0.01    -0.00   0.00  -0.00
   7   6     0.15   0.09   0.35     0.02   0.03   0.08     0.00  -0.00  -0.00
   8   6     0.03  -0.29  -0.60     0.05  -0.10  -0.17    -0.00   0.00   0.00
   9   6    -0.09   0.06   0.25    -0.09   0.14   0.04     0.00  -0.00  -0.00
  10   1    -0.00  -0.00  -0.01     0.00  -0.00  -0.00    -0.24  -0.32   0.62
  11   1     0.04   0.00   0.06     0.01  -0.00   0.01     0.01   0.04  -0.02
  12   1    -0.02  -0.00  -0.01    -0.01   0.00  -0.00    -0.11  -0.58  -0.15
  13   1     0.11  -0.05  -0.01     0.01  -0.00  -0.00    -0.00  -0.00   0.00
  14   1     0.09  -0.07  -0.07     0.02  -0.01  -0.01    -0.00   0.00  -0.00
  15   1    -0.02   0.09  -0.14    -0.03  -0.27   0.06    -0.00   0.00   0.00
  16   1    -0.19   0.03  -0.05     0.88   0.10   0.16     0.00   0.00   0.00
  17   1     0.11   0.03   0.00    -0.02   0.06   0.02     0.00   0.00   0.00
                     40                     41                     42
                        a                      a                      a 
 Frequencies --  2983.9580              3030.7868              3053.9719
 Red. masses --     1.4502                 1.6884                 1.7283
 Frc consts  --     0.0000                 0.0000                 0.0000
 IR Inten    --    12.8383                 2.9820                 1.1972
 Raman Activ --     0.0000                 0.0000                 0.0000
 Depolar     --     0.0000                 0.0000                 0.0000
 Atom AN      X      Y      Z        X      Y      Z        X      Y      Z
   1   8     0.00  -0.00   0.00     0.00   0.00  -0.00    -0.00   0.00   0.00
   2  16    -0.00   0.00   0.00    -0.00  -0.00   0.00     0.00   0.00  -0.00
   3   7    -0.01  -0.00  -0.02     0.00  -0.00  -0.00     0.01  -0.00  -0.00
   4   6     0.02  -0.11  -0.16     0.00  -0.00  -0.01     0.21  -0.12  -0.09
   5   7    -0.00   0.00   0.00    -0.00  -0.00   0.00    -0.00   0.00   0.00
   6   6    -0.00   0.00   0.00    -0.00  -0.00  -0.00    -0.00   0.00  -0.00
   7   6     0.00  -0.00  -0.00     0.00  -0.00   0.00    -0.00  -0.00  -0.00
   8   6     0.00  -0.00  -0.00    -0.01  -0.00  -0.00    -0.00   0.00   0.00
   9   6     0.01   0.00   0.00    -0.25   0.01   0.03     0.00  -0.00   0.00
  10   1    -0.20  -0.31   0.50    -0.00  -0.01   0.01     0.02  -0.02  -0.01
  11   1     0.02  -0.02  -0.02    -0.01   0.01   0.00    -0.80   0.44   0.33
  12   1     0.16   0.72   0.13     0.01   0.02   0.00     0.03  -0.00  -0.01
  13   1    -0.00  -0.00  -0.00     0.00   0.00   0.00    -0.00   0.00   0.00
  14   1     0.00   0.00   0.00    -0.01   0.00  -0.00     0.00  -0.00   0.00
  15   1    -0.02   0.00   0.00     0.96  -0.04   0.01    -0.02   0.00   0.00
  16   1    -0.00   0.00  -0.00    -0.02  -0.02   0.00    -0.00   0.00  -0.00
  17   1    -0.00   0.00  -0.00    -0.08   0.02  -0.10    -0.00   0.00  -0.01
                     43                     44                     45
                        a                      a                      a 
 Frequencies --  3093.4146              3176.5001              3187.2713
 Red. masses --     1.8429                 1.8251                 1.9545
 Frc consts  --     0.0000                 0.0000                 0.0000
 IR Inten    --     4.4969                10.3091                23.8628
 Raman Activ --     0.0000                 0.0000                 0.0000
 Depolar     --     0.0000                 0.0000                 0.0000
 Atom AN      X      Y      Z        X      Y      Z        X      Y      Z
   1   8     0.00  -0.00  -0.00    -0.00   0.00   0.00     0.00  -0.00   0.00
   2  16    -0.00  -0.00   0.00    -0.00  -0.00  -0.00    -0.00  -0.00  -0.00
   3   7    -0.00   0.00   0.00     0.00  -0.00  -0.00     0.00   0.00   0.00
   4   6    -0.00   0.00   0.00    -0.00   0.00   0.00    -0.00   0.00  -0.00
   5   7     0.00  -0.00  -0.00    -0.00   0.00   0.00     0.01  -0.00  -0.00
   6   6     0.00  -0.00   0.00     0.00   0.08   0.18     0.00  -0.08  -0.19
   7   6    -0.00   0.00  -0.00    -0.18   0.04  -0.07    -0.19   0.05  -0.07
   8   6     0.01  -0.00   0.00    -0.00   0.00   0.01     0.00   0.00   0.01
   9   6     0.13  -0.04   0.24    -0.00   0.00  -0.00    -0.00   0.00  -0.00
  10   1     0.00   0.00  -0.00    -0.00   0.00   0.00     0.00  -0.00   0.00
  11   1     0.01  -0.00  -0.00     0.00  -0.00  -0.00     0.00  -0.00  -0.00
  12   1    -0.00  -0.01  -0.00    -0.00  -0.00  -0.00     0.00   0.00   0.00
  13   1    -0.00   0.00   0.00    -0.01  -0.27  -0.62     0.01   0.27   0.62
  14   1     0.01  -0.00   0.00     0.62  -0.16   0.23     0.62  -0.16   0.23
  15   1    -0.10  -0.00   0.03     0.01  -0.00  -0.00     0.00  -0.00  -0.00
  16   1     0.01  -0.00   0.01    -0.00  -0.00  -0.00    -0.00  -0.00  -0.00
  17   1    -0.37   0.15  -0.87     0.00  -0.00   0.00     0.00  -0.00   0.00
