17
 xtb: 6.7.1 (edcfbbe)
O            0.82959742901061        2.44368722382689       -0.41971077938759
S            0.31448612451288        2.65539580095113        0.96064152232074
N            0.66957541098589       -0.60333405446864        0.05412792334141
C            1.65695089046731       -0.52550853764612        1.09049570997515
N            0.93744488981792       -1.22365258384410       -1.07868266092741
C           -0.13919163665800       -1.11214557801916       -1.83792828427404
C           -1.13747433574764       -0.40106815860096       -1.17413007246039
C           -0.58517081378621       -0.09504852416623        0.05819433134105
C           -1.17136448996925        0.71339948271861        1.15042774604735
H            1.31137976301370       -1.02877206808217        1.99609705861156
H            2.55468671138154       -1.01775324879797        0.72289189670690
H            1.88163278452235        0.51741503322732        1.32085913015916
H           -0.15705652823413       -1.53959507729368       -2.81909666985827
H           -2.11563485748238       -0.14880998648211       -1.53212389814359
H           -2.24370581590595        0.64619948915593        1.16487009193433
H           -1.09459847335398        1.85913467791026        0.92662108103259
H           -0.73486354759039        0.47984851081876        2.13581904408020
