 Entering Gaussian System
 *********************************************
 Gaussian 98:
 frequency output generated by the xtb code
 *********************************************
                         Standard orientation:
 --------------------------------------------------------------------
  Center     Atomic     Atomic              Coordinates (Angstroms)
  Number     Number      Type              X           Y           Z
 --------------------------------------------------------------------
    1          6             0       -2.019185   -0.058797    0.003854
    2          6             0       -0.597457    0.368827    0.003795
    3          6             0       -0.009277    1.613550    0.003469
    4          6             0        1.371053    1.360385    0.009155
    5          7             0        1.615953    0.067114    0.012779
    6          7             0        0.421320   -0.521230    0.009752
    7          1             0       -2.667165    0.812802   -0.016331
    8          1             0       -2.242588   -0.639872    0.898855
    9          1             0       -2.234068   -0.674889   -0.869897
   10          1             0       -0.506223    2.560942    0.000184
   11          1             0        2.183845    2.058300    0.010844
   12          1             0        0.356016   -1.525772    0.009934
   13          6             0       -0.947868   -4.220168   -0.032026
   14          7             0       -1.354311   -5.406613   -0.020420
   15          7             0       -1.719030   -6.474183   -0.010074
   16          1             0       -1.660041   -3.418202   -0.050802
   17          1             0        0.107904   -4.031341   -0.022794
 --------------------------------------------------------------------
     1 basis functions        1 primitive gaussians
     1 alpha electrons        1 beta electrons

 Harmonic frequencies (cm**-1), IR intensities (km*mol⁻¹),
 Raman scattering activities (A**4/amu), Raman depolarization ratios,
 reduced masses (AMU), force constants (mDyne/A) and normal coordinates:
                      1                      2                      3
                        a                      a                      a 
 Frequencies --   -50.8350               -21.5058               -11.6831
 Red. masses --     9.2507                10.7515                10.9879
 Frc consts  --     0.0000                 0.0000                 0.0000
 IR Inten    --     2.0490                 4.7043                 2.2805
 Raman Activ --     0.0000                 0.0000                 0.0000
 Depolar     --     0.0000                 0.0000                 0.0000
 Atom AN      X      Y      Z        X      Y      Z        X      Y      Z
   1   6    -0.00   0.00   0.12     0.00  -0.01  -0.17    -0.19   0.49  -0.00
   2   6    -0.00  -0.00   0.07     0.00  -0.01  -0.04    -0.09   0.17  -0.00
   3   6     0.00  -0.00  -0.27    -0.01  -0.00   0.39     0.19   0.04   0.01
   4   6     0.00  -0.01  -0.16    -0.00   0.00   0.30     0.13  -0.28   0.01
   5   7    -0.00  -0.01   0.23     0.00   0.01  -0.15    -0.18  -0.36  -0.01
   6   7    -0.01  -0.00   0.37     0.01  -0.00  -0.37    -0.32  -0.06  -0.02
   7   1    -0.00   0.00   0.02    -0.00  -0.00  -0.02     0.00   0.18  -0.01
   8   1     0.00   0.01   0.05    -0.01  -0.05  -0.08    -0.09   0.16   0.00
   9   1    -0.01  -0.01   0.05     0.01   0.04  -0.08    -0.09   0.15   0.00
  10   1     0.00  -0.00  -0.16    -0.00  -0.00   0.21     0.12   0.04   0.01
  11   1     0.00  -0.00  -0.10    -0.00   0.00   0.16     0.08  -0.13   0.01
  12   1    -0.00  -0.00   0.20     0.00  -0.00  -0.20    -0.15  -0.01  -0.01
  13   6    -0.00   0.01  -0.51     0.00  -0.00  -0.39     0.03   0.02  -0.00
  14   7     0.00   0.01  -0.12    -0.00   0.01   0.05     0.17  -0.03   0.00
  15   7     0.01   0.01   0.32    -0.01   0.01   0.48     0.31  -0.07   0.01
  16   1    -0.01   0.00   0.02     0.00  -0.00  -0.13    -0.02  -0.02  -0.00
  17   1     0.00   0.00  -0.47     0.00  -0.00  -0.21     0.00   0.04  -0.00
                      4                      5                      6
                        a                      a                      a 
 Frequencies --    25.7954                45.3209                52.3504
 Red. masses --    12.2877                10.2213                 2.6365
 Frc consts  --     0.0000                 0.0000                 0.0000
 IR Inten    --     0.8158                 3.4959                 1.1042
 Raman Activ --     0.0000                 0.0000                 0.0000
 Depolar     --     0.0000                 0.0000                 0.0000
 Atom AN      X      Y      Z        X      Y      Z        X      Y      Z
   1   6    -0.07  -0.18   0.00     0.05  -0.17  -0.03     0.01  -0.04   0.08
   2   6    -0.07  -0.19   0.00     0.03  -0.12  -0.02     0.01  -0.02   0.05
   3   6    -0.06  -0.19  -0.00    -0.01  -0.10   0.02     0.00  -0.02  -0.07
   4   6    -0.06  -0.20  -0.01     0.00  -0.06   0.02     0.00  -0.01  -0.08
   5   7    -0.08  -0.22  -0.00     0.04  -0.05  -0.01     0.01  -0.01   0.03
   6   7    -0.08  -0.21   0.00     0.06  -0.09  -0.03     0.02  -0.02   0.11
   7   1    -0.02  -0.05   0.01     0.00  -0.06  -0.05     0.00  -0.01   0.24
   8   1    -0.02  -0.06  -0.00     0.01  -0.01   0.01     0.06  -0.20  -0.08
   9   1    -0.03  -0.04  -0.01     0.03  -0.09   0.01    -0.05   0.17  -0.09
  10   1    -0.02  -0.06  -0.00    -0.01  -0.03   0.01    -0.00  -0.01  -0.04
  11   1    -0.02  -0.06  -0.00    -0.01  -0.01   0.01     0.00  -0.00  -0.05
  12   1    -0.02  -0.06   0.00     0.02  -0.03  -0.02     0.00  -0.00   0.05
  13   6     0.36   0.30   0.01    -0.55   0.36   0.06    -0.15   0.08  -0.18
  14   7     0.14   0.41   0.00    -0.05   0.20   0.01    -0.02   0.04  -0.04
  15   7    -0.11   0.49  -0.00     0.48   0.02  -0.04     0.13  -0.01   0.13
  16   1     0.15   0.13  -0.02    -0.25   0.02   0.18    -0.06  -0.01  -0.66
  17   1     0.12   0.03   0.02    -0.18   0.22  -0.13    -0.06   0.07   0.51
                      7                      8                      9
                        a                      a                      a 
 Frequencies --   102.4166               249.8472               314.1225
 Red. masses --     1.4043                 9.6370                 8.8109
 Frc consts  --     0.0000                 0.0000                 0.0000
 IR Inten    --     0.1967                 0.0686                 0.0038
 Raman Activ --     0.0000                 0.0000                 0.0000
 Depolar     --     0.0000                 0.0000                 0.0000
 Atom AN      X      Y      Z        X      Y      Z        X      Y      Z
   1   6     0.00  -0.01   0.11    -0.00  -0.00  -0.36     0.15  -0.44   0.00
   2   6     0.00  -0.01  -0.00    -0.00   0.00   0.50    -0.09   0.38  -0.00
   3   6    -0.00  -0.01   0.02    -0.00   0.00   0.29     0.19   0.26  -0.00
   4   6    -0.00   0.00   0.01     0.00  -0.00  -0.29     0.15  -0.09   0.00
   5   7     0.00   0.00  -0.02     0.00  -0.00  -0.31    -0.16  -0.16   0.00
   6   7     0.01  -0.00  -0.02    -0.00   0.00   0.33    -0.29   0.20  -0.00
   7   1     0.00  -0.01  -0.48     0.00  -0.00  -0.23    -0.16  -0.28  -0.00
   8   1    -0.11   0.44   0.30    -0.20  -0.02  -0.17     0.18  -0.18   0.00
   9   1     0.11  -0.44   0.31     0.19   0.02  -0.17     0.19  -0.18   0.00
  10   1    -0.00  -0.00   0.01    -0.00   0.00   0.12     0.13   0.12   0.00
  11   1    -0.00   0.00   0.00     0.00  -0.00  -0.21     0.09  -0.08   0.00
  12   1     0.00  -0.00  -0.01    -0.00   0.00   0.09    -0.17   0.06   0.00
  13   6    -0.01   0.01  -0.13     0.00  -0.00   0.01     0.00   0.00   0.00
  14   7    -0.00   0.01  -0.03     0.00  -0.00  -0.00     0.02  -0.01   0.00
  15   7     0.00   0.01   0.05    -0.00  -0.00  -0.00    -0.02   0.01  -0.00
  16   1    -0.00  -0.00  -0.29     0.00  -0.00  -0.01    -0.01  -0.01   0.00
  17   1    -0.01   0.01   0.22     0.00   0.00  -0.00    -0.00   0.01  -0.00
                     10                     11                     12
                        a                      a                      a 
 Frequencies --   375.4514               384.8944               537.4269
 Red. masses --    11.3383                11.0087                 7.2704
 Frc consts  --     0.0000                 0.0000                 0.0000
 IR Inten    --    71.1749                 0.5908                 1.9970
 Raman Activ --     0.0000                 0.0000                 0.0000
 Depolar     --     0.0000                 0.0000                 0.0000
 Atom AN      X      Y      Z        X      Y      Z        X      Y      Z
   1   6    -0.00  -0.00  -0.00    -0.00   0.01  -0.00     0.00  -0.00  -0.02
   2   6    -0.00   0.00   0.00     0.00  -0.01  -0.00     0.00  -0.00  -0.25
   3   6     0.00   0.00  -0.01    -0.01  -0.01  -0.00    -0.00   0.00   0.04
   4   6     0.00  -0.00  -0.01    -0.00   0.00   0.00    -0.00  -0.00   0.02
   5   7    -0.00  -0.00   0.00     0.01   0.00   0.00     0.00  -0.00  -0.17
   6   7    -0.00   0.00   0.05     0.01  -0.01   0.00    -0.00   0.00   0.47
   7   1    -0.00   0.00   0.01     0.01   0.01   0.00    -0.00  -0.00   0.04
   8   1     0.00  -0.01  -0.00    -0.00   0.00  -0.00     0.07   0.02   0.02
   9   1    -0.00   0.01  -0.01    -0.00   0.01   0.00    -0.07  -0.01   0.02
  10   1     0.00   0.00  -0.00    -0.00  -0.00  -0.00    -0.00   0.00   0.03
  11   1     0.00  -0.00  -0.00    -0.00   0.00   0.00    -0.00  -0.00   0.03
  12   1     0.00   0.00  -0.05     0.00  -0.00  -0.00     0.00  -0.00  -0.49
  13   6     0.01  -0.01  -0.56    -0.18   0.06  -0.01     0.00  -0.00  -0.09
  14   7    -0.01   0.01   0.66     0.69  -0.23   0.02     0.00  -0.00  -0.34
  15   7     0.01  -0.00  -0.30    -0.43   0.15  -0.01    -0.00   0.00   0.23
  16   1    -0.00   0.01   0.28    -0.28  -0.18  -0.00    -0.00   0.00   0.36
  17   1    -0.00   0.00   0.28    -0.11   0.32  -0.00    -0.00   0.00   0.34
                     13                     14                     15
                        a                      a                      a 
 Frequencies --   558.0975               612.2447               651.2432
 Red. masses --     7.2002                 8.9910                 7.7894
 Frc consts  --     0.0000                 0.0000                 0.0000
 IR Inten    --    52.2753                 4.5675                52.6511
 Raman Activ --     0.0000                 0.0000                 0.0000
 Depolar     --     0.0000                 0.0000                 0.0000
 Atom AN      X      Y      Z        X      Y      Z        X      Y      Z
   1   6    -0.00  -0.00   0.02     0.00   0.00  -0.06    -0.00  -0.00   0.03
   2   6    -0.00   0.00   0.29     0.00  -0.00  -0.50    -0.00   0.00   0.20
   3   6     0.00  -0.00  -0.09    -0.00   0.00   0.52     0.00  -0.00   0.05
   4   6     0.00  -0.00  -0.03    -0.00  -0.00  -0.37     0.00  -0.00  -0.42
   5   7     0.00   0.00   0.19    -0.00   0.00   0.23    -0.00   0.00   0.54
   6   7     0.00  -0.00  -0.42    -0.00  -0.00   0.02     0.00   0.00  -0.21
   7   1     0.00   0.00  -0.03    -0.00  -0.00   0.05    -0.00  -0.00  -0.02
   8   1    -0.08  -0.02  -0.03     0.13   0.04   0.04    -0.05  -0.01  -0.02
   9   1     0.08   0.02  -0.03    -0.12  -0.03   0.04     0.05   0.01  -0.02
  10   1     0.00  -0.00  -0.05    -0.00   0.00   0.23     0.00   0.00   0.08
  11   1     0.00   0.00  -0.03     0.00  -0.00  -0.23     0.00   0.00  -0.16
  12   1    -0.00   0.00   0.32    -0.00   0.00   0.36     0.00  -0.00  -0.63
  13   6     0.00  -0.00  -0.14     0.00  -0.00  -0.02    -0.00   0.00   0.03
  14   7     0.00  -0.00  -0.33     0.00  -0.00  -0.02    -0.00   0.00   0.02
  15   7    -0.00   0.00   0.23    -0.00   0.00   0.02     0.00  -0.00  -0.02
  16   1    -0.00   0.01   0.44    -0.00   0.00   0.05     0.00  -0.00  -0.05
  17   1    -0.00   0.01   0.43    -0.00   0.00   0.05     0.00  -0.00  -0.06
                     16                     17                     18
                        a                      a                      a 
 Frequencies --   670.7453               811.6516               851.5088
 Red. masses --    10.5360                 2.8210                 3.3185
 Frc consts  --     0.0000                 0.0000                 0.0000
 IR Inten    --     2.0214                11.9747                 1.4389
 Raman Activ --     0.0000                 0.0000                 0.0000
 Depolar     --     0.0000                 0.0000                 0.0000
 Atom AN      X      Y      Z        X      Y      Z        X      Y      Z
   1   6    -0.65  -0.18  -0.00    -0.00  -0.00  -0.00     0.00   0.00   0.02
   2   6    -0.26  -0.03  -0.01    -0.00  -0.00  -0.02    -0.00   0.00   0.01
   3   6     0.24  -0.14   0.00    -0.00   0.00   0.39    -0.00   0.00   0.15
   4   6     0.33   0.06   0.00    -0.00   0.00   0.06     0.00  -0.00  -0.43
   5   7     0.26   0.07  -0.00    -0.00   0.00  -0.03     0.00  -0.00   0.00
   6   7     0.13   0.21   0.00     0.00  -0.00  -0.06     0.00   0.00   0.04
   7   1    -0.19  -0.06   0.00    -0.00   0.00   0.01     0.00  -0.00  -0.01
   8   1    -0.18  -0.05  -0.00     0.00   0.00   0.00    -0.03  -0.01  -0.01
   9   1    -0.19  -0.05   0.00    -0.00  -0.00   0.00     0.03   0.01  -0.01
  10   1     0.15   0.01   0.00     0.00  -0.00  -0.89     0.00  -0.00  -0.17
  11   1     0.06   0.05   0.00     0.00  -0.00  -0.20    -0.00   0.00   0.87
  12   1     0.10   0.05   0.00     0.00  -0.00  -0.08    -0.00   0.00   0.06
  13   6    -0.00  -0.00   0.00    -0.00  -0.00   0.00    -0.00  -0.00  -0.00
  14   7     0.00  -0.00   0.00     0.00   0.00  -0.00     0.00   0.00  -0.00
  15   7    -0.00  -0.00  -0.00    -0.00  -0.00   0.00    -0.00  -0.00  -0.00
  16   1     0.00   0.00  -0.00    -0.00  -0.00  -0.00    -0.00  -0.00   0.00
  17   1    -0.00   0.00  -0.00     0.00  -0.00  -0.00    -0.00   0.00   0.00
                     19                     20                     21
                        a                      a                      a 
 Frequencies --   898.4737               991.1660              1001.0325
 Red. masses --    11.4134                 4.7688                 5.5340
 Frc consts  --     0.0000                 0.0000                 0.0000
 IR Inten    --    19.6643                 0.3090                 4.8043
 Raman Activ --     0.0000                 0.0000                 0.0000
 Depolar     --     0.0000                 0.0000                 0.0000
 Atom AN      X      Y      Z        X      Y      Z        X      Y      Z
   1   6     0.05  -0.03   0.00     0.18  -0.37   0.00     0.08   0.11  -0.00
   2   6     0.04  -0.16   0.00    -0.01  -0.11  -0.00    -0.08  -0.02   0.00
   3   6     0.31  -0.16   0.00     0.05  -0.00   0.00     0.02  -0.24   0.00
   4   6     0.33   0.40   0.00     0.01   0.01  -0.00     0.05   0.01   0.00
   5   7    -0.53   0.25  -0.00    -0.10  -0.06   0.00     0.04  -0.00   0.00
   6   7    -0.22  -0.22  -0.00    -0.08   0.33  -0.00    -0.08   0.14  -0.00
   7   1     0.03   0.00  -0.00     0.56   0.29   0.00    -0.06  -0.04   0.00
   8   1     0.00  -0.00   0.00    -0.32   0.10   0.03     0.10  -0.01  -0.01
   9   1     0.00  -0.00  -0.00    -0.33   0.09  -0.03     0.10  -0.01   0.01
  10   1    -0.13  -0.16   0.00     0.12   0.06   0.00    -0.07  -0.11  -0.00
  11   1     0.24  -0.06   0.00     0.01  -0.01   0.00    -0.08   0.11  -0.00
  12   1     0.16  -0.07   0.00    -0.14   0.09  -0.00    -0.07   0.04  -0.00
  13   6    -0.01   0.00  -0.00     0.04  -0.01   0.00     0.38  -0.13   0.01
  14   7     0.01  -0.00   0.00    -0.03   0.01  -0.00    -0.31   0.11  -0.00
  15   7    -0.00   0.00  -0.00     0.00  -0.00   0.00     0.05  -0.01   0.00
  16   1     0.00   0.01  -0.00    -0.03  -0.04   0.00    -0.34  -0.40   0.00
  17   1    -0.00  -0.01   0.00    -0.00   0.06  -0.00    -0.02   0.52  -0.01
                     22                     23                     24
                        a                      a                      a 
 Frequencies --  1009.8317              1038.9083              1056.5343
 Red. masses --     8.7413                 4.4023                 3.1258
 Frc consts  --     0.0000                 0.0000                 0.0000
 IR Inten    --     5.3437                 7.8281                 0.9303
 Raman Activ --     0.0000                 0.0000                 0.0000
 Depolar     --     0.0000                 0.0000                 0.0000
 Atom AN      X      Y      Z        X      Y      Z        X      Y      Z
   1   6     0.23   0.14   0.00     0.00  -0.00  -0.43     0.06   0.03  -0.00
   2   6    -0.20  -0.05  -0.00     0.00   0.00   0.35    -0.04  -0.05   0.00
   3   6     0.05  -0.52   0.00    -0.00  -0.00  -0.02     0.20  -0.09   0.00
   4   6     0.09  -0.02   0.00     0.00   0.00  -0.03    -0.19   0.06  -0.00
   5   7     0.06  -0.03   0.00     0.00   0.00   0.00    -0.13   0.12  -0.00
   6   7    -0.20   0.40  -0.00    -0.00   0.00  -0.03    -0.06  -0.21  -0.00
   7   1    -0.01  -0.02  -0.00    -0.01  -0.00   0.22     0.00  -0.00   0.00
   8   1     0.15   0.00   0.00     0.51   0.19   0.16     0.04  -0.00  -0.00
   9   1     0.15   0.01  -0.00    -0.50  -0.19   0.16     0.03  -0.01   0.00
  10   1    -0.07  -0.20   0.00    -0.01  -0.00  -0.02     0.71   0.31   0.00
  11   1    -0.21   0.26  -0.00     0.00  -0.00   0.03    -0.32   0.32  -0.00
  12   1    -0.10   0.11  -0.00    -0.00   0.00  -0.00     0.15  -0.07   0.00
  13   6    -0.17   0.06  -0.00    -0.00   0.00  -0.00     0.01  -0.00   0.00
  14   7     0.14  -0.05   0.00     0.00  -0.00   0.00    -0.01   0.00  -0.00
  15   7    -0.02   0.01  -0.00    -0.00   0.00  -0.00     0.00   0.00   0.00
  16   1     0.16   0.19  -0.00     0.00   0.00  -0.00    -0.01  -0.01   0.00
  17   1     0.01  -0.24   0.00     0.00  -0.00   0.00    -0.00   0.02  -0.00
                     25                     26                     27
                        a                      a                      a 
 Frequencies --  1115.1214              1184.6109              1245.4457
 Red. masses --     6.2597                 3.9962                10.6696
 Frc consts  --     0.0000                 0.0000                 0.0000
 IR Inten    --    27.8539                 9.5217                38.5099
 Raman Activ --     0.0000                 0.0000                 0.0000
 Depolar     --     0.0000                 0.0000                 0.0000
 Atom AN      X      Y      Z        X      Y      Z        X      Y      Z
   1   6     0.09   0.11  -0.00     0.02   0.07   0.00    -0.17   0.06  -0.00
   2   6    -0.16  -0.05   0.00    -0.02  -0.17  -0.00     0.39  -0.23   0.00
   3   6    -0.14  -0.17  -0.00    -0.14  -0.21  -0.00     0.33   0.03   0.00
   4   6    -0.10  -0.22   0.00    -0.04   0.13  -0.00    -0.31   0.07  -0.00
   5   7    -0.28   0.03  -0.00     0.18   0.30   0.00    -0.36  -0.19  -0.00
   6   7     0.25   0.36   0.00    -0.05  -0.06  -0.00     0.32   0.30   0.00
   7   1    -0.03  -0.01   0.00    -0.05  -0.02  -0.00    -0.20  -0.10  -0.00
   8   1     0.09  -0.01  -0.00     0.06  -0.01  -0.00    -0.02  -0.04  -0.03
   9   1     0.09  -0.01   0.01     0.07  -0.01   0.00    -0.01  -0.04   0.03
  10   1     0.22   0.08   0.00     0.32   0.13   0.00    -0.03  -0.06   0.00
  11   1     0.27  -0.42   0.00     0.33  -0.36   0.00    -0.10   0.02  -0.00
  12   1     0.49   0.07   0.00    -0.62   0.02  -0.00    -0.31   0.10  -0.00
  13   6     0.01  -0.00   0.00    -0.01   0.00  -0.00    -0.01  -0.02   0.00
  14   7    -0.01   0.00  -0.00     0.01   0.00   0.00     0.01   0.01  -0.00
  15   7    -0.00  -0.01   0.00     0.00   0.01  -0.00     0.01   0.03  -0.00
  16   1     0.00   0.00  -0.00    -0.01  -0.01   0.00    -0.03  -0.03   0.00
  17   1    -0.00   0.03  -0.00     0.01  -0.05   0.00     0.01  -0.06   0.00
                     28                     29                     30
                        a                      a                      a 
 Frequencies --  1263.4234              1362.9592              1394.1256
 Red. masses --     4.2890                11.0585                10.8159
 Frc consts  --     0.0000                 0.0000                 0.0000
 IR Inten    --     1.9143                11.4744                31.3630
 Raman Activ --     0.0000                 0.0000                 0.0000
 Depolar     --     0.0000                 0.0000                 0.0000
 Atom AN      X      Y      Z        X      Y      Z        X      Y      Z
   1   6    -0.01   0.01   0.00     0.03   0.07  -0.00    -0.11   0.07  -0.00
   2   6     0.04  -0.03   0.00    -0.03  -0.11   0.00     0.09  -0.50   0.00
   3   6     0.03  -0.00   0.00    -0.52   0.07  -0.00    -0.00   0.25  -0.00
   4   6    -0.03   0.02  -0.00     0.51   0.22   0.00    -0.09   0.32  -0.00
   5   7    -0.01  -0.00   0.00    -0.26  -0.34  -0.00     0.28  -0.32   0.00
   6   7     0.01   0.01   0.00     0.28   0.02   0.00    -0.40   0.19  -0.00
   7   1    -0.03  -0.02  -0.00    -0.04  -0.02  -0.00     0.08   0.08  -0.00
   8   1    -0.01  -0.00  -0.00     0.02  -0.02  -0.02     0.19  -0.08  -0.01
   9   1    -0.01  -0.00   0.00     0.02  -0.02   0.02     0.19  -0.08   0.01
  10   1     0.01  -0.00  -0.00     0.14   0.18   0.00     0.04   0.10   0.00
  11   1    -0.00  -0.01   0.00    -0.00   0.24  -0.00     0.11  -0.05   0.00
  12   1    -0.06   0.01  -0.00    -0.14   0.01  -0.00     0.23   0.02   0.00
  13   6     0.09   0.26  -0.00     0.00   0.02  -0.00     0.00   0.00  -0.00
  14   7    -0.05  -0.14   0.00    -0.00  -0.00   0.00    -0.00  -0.00   0.00
  15   7    -0.13  -0.38   0.00    -0.00  -0.01   0.00    -0.00  -0.00   0.00
  16   1     0.41   0.44  -0.00     0.00   0.00   0.00     0.00   0.00   0.00
  17   1    -0.05   0.61  -0.01     0.00  -0.00   0.00     0.00  -0.00   0.00
                     31                     32                     33
                        a                      a                      a 
 Frequencies --  1400.7310              1426.1627              1476.8057
 Red. masses --     3.8705                 9.6497                 1.7824
 Frc consts  --     0.0000                 0.0000                 0.0000
 IR Inten    --     7.5129                22.5360                 7.7994
 Raman Activ --     0.0000                 0.0000                 0.0000
 Depolar     --     0.0000                 0.0000                 0.0000
 Atom AN      X      Y      Z        X      Y      Z        X      Y      Z
   1   6     0.40   0.15  -0.00    -0.02  -0.01   0.00    -0.03   0.04   0.21
   2   6     0.03  -0.11   0.00     0.01   0.00   0.00     0.06  -0.02   0.04
   3   6    -0.03   0.02  -0.00    -0.01  -0.00  -0.00    -0.02   0.01   0.00
   4   6    -0.01   0.05  -0.00     0.01   0.01  -0.00     0.04  -0.09   0.00
   5   7     0.11  -0.04   0.00    -0.01  -0.01  -0.00    -0.02   0.07  -0.00
   6   7    -0.18   0.05  -0.00     0.01  -0.01   0.00    -0.03   0.01  -0.00
   7   1    -0.38  -0.30   0.01     0.01   0.01  -0.00     0.05   0.03  -0.70
   8   1    -0.45  -0.09  -0.19     0.03   0.01   0.02     0.36  -0.37  -0.13
   9   1    -0.45  -0.09   0.19     0.03   0.02  -0.02    -0.35   0.16  -0.01
  10   1     0.03   0.03   0.00     0.00   0.00   0.00    -0.00   0.01  -0.00
  11   1     0.04  -0.03   0.00    -0.00   0.00  -0.00    -0.02   0.02  -0.00
  12   1     0.10   0.01   0.00    -0.02   0.00  -0.00    -0.00   0.01   0.00
  13   6    -0.01  -0.04   0.00    -0.24  -0.69   0.01    -0.00  -0.00  -0.00
  14   7     0.00   0.01  -0.00     0.03   0.09  -0.00     0.00  -0.00   0.00
  15   7     0.01   0.03  -0.00     0.15   0.43  -0.00     0.00   0.00   0.00
  16   1     0.01   0.00   0.00     0.32   0.15   0.00     0.00   0.00   0.00
  17   1    -0.01   0.01  -0.00    -0.16   0.32  -0.01    -0.00   0.00   0.00
                     34                     35                     36
                        a                      a                      a 
 Frequencies --  1477.9836              1485.3602              1578.8201
 Red. masses --     4.6084                 9.3207                11.3350
 Frc consts  --     0.0000                 0.0000                 0.0000
 IR Inten    --    28.1470                17.8200                16.5517
 Raman Activ --     0.0000                 0.0000                 0.0000
 Depolar     --     0.0000                 0.0000                 0.0000
 Atom AN      X      Y      Z        X      Y      Z        X      Y      Z
   1   6     0.14  -0.16   0.05    -0.10  -0.11  -0.00    -0.18  -0.07  -0.00
   2   6    -0.18   0.06   0.01     0.49  -0.19   0.00     0.51   0.49  -0.00
   3   6     0.07  -0.06   0.00    -0.21   0.03  -0.00    -0.21  -0.43   0.00
   4   6    -0.16   0.32  -0.00     0.23  -0.36   0.00    -0.11   0.28  -0.00
   5   7     0.08  -0.27   0.00    -0.04   0.29  -0.00     0.06  -0.21   0.00
   6   7     0.08  -0.05  -0.00    -0.29   0.15  -0.00    -0.15   0.01  -0.00
   7   1    -0.21  -0.19  -0.17    -0.19  -0.13   0.02     0.05   0.05   0.00
   8   1     0.07   0.37   0.26    -0.00   0.27   0.18    -0.05  -0.07  -0.04
   9   1    -0.10   0.49  -0.32     0.02   0.25  -0.19    -0.05  -0.07   0.05
  10   1     0.02  -0.02  -0.00     0.05   0.06   0.00     0.13  -0.04   0.00
  11   1     0.08  -0.06   0.00    -0.08   0.06  -0.00     0.09  -0.06   0.00
  12   1     0.03  -0.02   0.00     0.07   0.04   0.00     0.14  -0.00   0.00
  13   6     0.01   0.01  -0.00     0.00   0.00   0.00     0.00   0.00  -0.00
  14   7    -0.00   0.00  -0.00    -0.00   0.00  -0.00    -0.00   0.00  -0.00
  15   7    -0.00  -0.01   0.00    -0.00  -0.00   0.00    -0.00  -0.00   0.00
  16   1    -0.01  -0.01   0.00    -0.01  -0.01  -0.00    -0.00  -0.00  -0.00
  17   1     0.00  -0.01   0.00     0.00  -0.00  -0.00     0.00  -0.00   0.00
                     37                     38                     39
                        a                      a                      a 
 Frequencies --  2401.8249              2992.6836              3004.2158
 Red. masses --    13.8467                 1.9371                 1.4964
 Frc consts  --     0.0000                 0.0000                 0.0000
 IR Inten    --   662.9920                29.4142                33.3383
 Raman Activ --     0.0000                 0.0000                 0.0000
 Depolar     --     0.0000                 0.0000                 0.0000
 Atom AN      X      Y      Z        X      Y      Z        X      Y      Z
   1   6    -0.00   0.00   0.00     0.01   0.03   0.29     0.06   0.20  -0.04
   2   6     0.00  -0.00   0.00     0.00   0.00   0.01     0.01   0.01  -0.00
   3   6     0.00   0.00  -0.00    -0.00  -0.00   0.00    -0.00  -0.00  -0.00
   4   6     0.00   0.00  -0.00    -0.00  -0.00  -0.00    -0.00  -0.00   0.00
   5   7    -0.00  -0.00  -0.00     0.00   0.00   0.00     0.00   0.00  -0.00
   6   7     0.00  -0.00  -0.00    -0.00  -0.00  -0.00    -0.00  -0.00   0.00
   7   1     0.00   0.00   0.00     0.00   0.00   0.04     0.02   0.00  -0.00
   8   1     0.00  -0.00  -0.00     0.12   0.34  -0.47    -0.14  -0.39   0.64
   9   1     0.00  -0.00   0.00    -0.14  -0.44  -0.59    -0.11  -0.32  -0.51
  10   1     0.00  -0.00   0.00    -0.00  -0.00  -0.00    -0.00  -0.00  -0.00
  11   1    -0.00  -0.00  -0.00     0.00  -0.00  -0.00     0.00   0.00   0.00
  12   1    -0.00   0.00   0.00     0.00   0.00   0.00     0.00   0.00  -0.00
  13   6    -0.08  -0.24   0.00     0.00  -0.00  -0.00     0.00  -0.00   0.00
  14   7     0.26   0.75  -0.01    -0.00  -0.00   0.00    -0.00  -0.00   0.00
  15   7    -0.18  -0.52   0.00     0.00   0.00  -0.00     0.00   0.00  -0.00
  16   1     0.00  -0.03  -0.00    -0.00   0.00   0.00    -0.01   0.01  -0.00
  17   1    -0.02  -0.03   0.00     0.00  -0.00   0.00     0.00  -0.00  -0.00
                     40                     41                     42
                        a                      a                      a 
 Frequencies --  3059.6104              3125.3239              3155.7147
 Red. masses --     1.7029                 1.4369                 2.1361
 Frc consts  --     0.0000                 0.0000                 0.0000
 IR Inten    --    11.6235                 1.1558                 1.0535
 Raman Activ --     0.0000                 0.0000                 0.0000
 Depolar     --     0.0000                 0.0000                 0.0000
 Atom AN      X      Y      Z        X      Y      Z        X      Y      Z
   1   6     0.15  -0.20   0.00    -0.00  -0.00   0.00     0.00   0.00  -0.00
   2   6     0.01  -0.01   0.00    -0.00   0.00   0.00     0.00   0.00  -0.00
   3   6    -0.00   0.00  -0.00     0.00  -0.00   0.00    -0.00   0.00  -0.00
   4   6    -0.00  -0.00   0.00    -0.00  -0.00  -0.00    -0.00  -0.00   0.00
   5   7    -0.00  -0.00  -0.00     0.00  -0.00  -0.00    -0.00   0.00   0.00
   6   7    -0.00   0.00   0.00    -0.00   0.00  -0.00     0.00   0.00   0.00
   7   1    -0.57   0.78  -0.02     0.00  -0.00   0.00    -0.00  -0.00  -0.00
   8   1     0.01  -0.04   0.02     0.00   0.00  -0.01    -0.00  -0.00   0.00
   9   1     0.01  -0.04  -0.01     0.00   0.00   0.01    -0.00  -0.00  -0.00
  10   1     0.00  -0.01   0.00    -0.00   0.00   0.00     0.00  -0.00   0.00
  11   1     0.00   0.00   0.00     0.00   0.00  -0.00     0.00   0.00   0.00
  12   1    -0.00  -0.00   0.00     0.00  -0.01   0.00     0.00  -0.00   0.00
  13   6    -0.00  -0.00   0.00    -0.06  -0.19   0.00    -0.30   0.10  -0.00
  14   7     0.00   0.00  -0.00    -0.00  -0.01   0.00    -0.01   0.00  -0.00
  15   7    -0.00  -0.00   0.00     0.00   0.01  -0.00    -0.00   0.00  -0.00
  16   1    -0.00   0.00  -0.00    -0.47   0.51  -0.01     0.43  -0.52   0.01
  17   1     0.00   0.00   0.00     0.68   0.11   0.01     0.65   0.14   0.01
                     43                     44                     45
                        a                      a                      a 
 Frequencies --  3176.5221              3191.3323              3469.3013
 Red. masses --     1.8392                 1.9412                 1.8508
 Frc consts  --     0.0000                 0.0000                 0.0000
 IR Inten    --    21.8903                28.5397                19.0069
 Raman Activ --     0.0000                 0.0000                 0.0000
 Depolar     --     0.0000                 0.0000                 0.0000
 Atom AN      X      Y      Z        X      Y      Z        X      Y      Z
   1   6     0.00  -0.00  -0.00    -0.00   0.00  -0.00     0.00  -0.00   0.00
   2   6     0.00   0.00   0.00    -0.01  -0.01  -0.00    -0.01  -0.00  -0.00
   3   6     0.04  -0.09   0.00    -0.12   0.24  -0.00     0.00   0.00   0.00
   4   6     0.19   0.17   0.00     0.09   0.07   0.00    -0.00   0.00  -0.00
   5   7     0.01  -0.00   0.00     0.00  -0.00   0.00    -0.00  -0.01   0.00
   6   7    -0.00  -0.00  -0.00    -0.00  -0.00   0.00    -0.01  -0.25   0.00
   7   1    -0.00   0.00  -0.00     0.01  -0.01   0.00    -0.00   0.00  -0.00
   8   1    -0.00  -0.00   0.00     0.00   0.00   0.00     0.00   0.00  -0.00
   9   1    -0.00  -0.00  -0.00     0.00   0.00  -0.00     0.00   0.00   0.00
  10   1    -0.17   0.32  -0.00     0.41  -0.79   0.00    -0.00  -0.00   0.00
  11   1    -0.67  -0.58  -0.00    -0.27  -0.23  -0.00     0.00  -0.00   0.00
  12   1     0.00  -0.00   0.00    -0.00  -0.00  -0.00     0.06   0.97  -0.00
  13   6    -0.00   0.00  -0.00     0.00  -0.00   0.00    -0.00  -0.00   0.00
  14   7    -0.00  -0.00   0.00    -0.00  -0.00   0.00    -0.00  -0.00   0.00
  15   7     0.00   0.00  -0.00     0.00   0.00  -0.00     0.00   0.00  -0.00
  16   1     0.00  -0.00   0.00    -0.00   0.00  -0.00    -0.00   0.00  -0.00
  17   1     0.00   0.00   0.00     0.00  -0.00   0.00     0.01  -0.00   0.00
