      -----------------------------------------------------------      
     |                   =====================                   |     
     |                           x T B                           |     
     |                   =====================                   |     
     |                         S. Grimme                         |     
     |          Mulliken Center for Theoretical Chemistry        |     
     |                    University of Bonn                     |     
      -----------------------------------------------------------      

   * xtb version 6.7.1 (edcfbbe) compiled by 'conda@3ef47c1a292c' on 2024-11-25

   xtb is free software: you can redistribute it and/or modify it under
   the terms of the GNU Lesser General Public License as published by
   the Free Software Foundation, either version 3 of the License, or
   (at your option) any later version.
   
   xtb is distributed in the hope that it will be useful,
   but WITHOUT ANY WARRANTY; without even the implied warranty of
   MERCHANTABILITY or FITNESS FOR A PARTICULAR PURPOSE.  See the
   GNU Lesser General Public License for more details.
   
   Cite this work as:
   * C. Bannwarth, E. Caldeweyher, S. Ehlert, A. Hansen, P. Pracht,
     J. Seibert, S. Spicher, S. Grimme, WIREs Comput. Mol. Sci., 2020, 11,
     e01493. DOI: 10.1002/wcms.1493
   
   for GFN2-xTB:
   * C. Bannwarth, S. Ehlert and S. Grimme., J. Chem. Theory Comput., 2019,
     15, 1652-1671. DOI: 10.1021/acs.jctc.8b01176
   for GFN1-xTB:
   * S. Grimme, C. Bannwarth, P. Shushkov, J. Chem. Theory Comput., 2017,
     13, 1989-2009. DOI: 10.1021/acs.jctc.7b00118
   for GFN0-xTB:
   * P. Pracht, E. Caldeweyher, S. Ehlert, S. Grimme, ChemRxiv, 2019, preprint.
     DOI: 10.26434/chemrxiv.8326202.v1
   for GFN-FF:
   * S. Spicher and S. Grimme, Angew. Chem. Int. Ed., 2020, 59, 15665-15673.
     DOI: 10.1002/anie.202004239
   
   for ALPB and GBSA implicit solvation:
   * S. Ehlert, M. Stahn, S. Spicher, S. Grimme, J. Chem. Theory Comput.,
     2021, 17, 4250-4261. DOI: 10.1021/acs.jctc.1c00471
   
   for ddCOSMO and CPCM-X implicit solvation:
   * M. Stahn, S. Ehlert, S. Grimme, J. Phys. Chem. A,
     2023, XX, XXXX-XXXX. DOI: 10.1021/acs.jpca.3c04382
   
   for DFT-D4:
   * E. Caldeweyher, C. Bannwarth and S. Grimme, J. Chem. Phys., 2017,
     147, 034112. DOI: 10.1063/1.4993215
   * E. Caldeweyher, S. Ehlert, A. Hansen, H. Neugebauer, S. Spicher,
     C. Bannwarth and S. Grimme, J. Chem. Phys., 2019, 150, 154122.
     DOI: 10.1063/1.5090222
   * E. Caldeweyher, J.-M. Mewes, S. Ehlert and S. Grimme, Phys. Chem. Chem. Phys.
     2020, 22, 8499-8512. DOI: 10.1039/D0CP00502A
   
   for sTDA-xTB:
   * S. Grimme and C. Bannwarth, J. Chem. Phys., 2016, 145, 054103.
     DOI: 10.1063/1.4959605
   
   in the mass-spec context:
   * V. Asgeirsson, C. Bauer and S. Grimme, Chem. Sci., 2017, 8, 4879.
     DOI: 10.1039/c7sc00601b
   * J. Koopman and S. Grimme, ACS Omega 2019, 4, 12, 15120-15133.
     DOI: 10.1021/acsomega.9b02011
   
   for metadynamics refer to:
   * S. Grimme, J. Chem. Theory Comput., 2019, 155, 2847-2862
     DOI: 10.1021/acs.jctc.9b00143
   
   for SPH calculations refer to:
   * S. Spicher and S. Grimme, J. Chem. Theory Comput., 2021, 17, 1701-1714
     DOI: 10.1021/acs.jctc.0c01306
   
   for ONIOM refer to:
   * C. Plett, A. Katbashev, S. Ehlert, S. Grimme, M. Bursch,
     Phys. Chem. Chem. Phys., 2023, 25, 17860-17868. DOI: 10.1039/D3CP02178E
   
   for DIPRO refer to:
   * J. Kohn, N. Gildemeister, S. Grimme, D. Fazzi, A. Hansen,
     J. Chem. Phys., 2023, just accepted.
   
   for PTB refer to:
   * S. Grimme, M. Mueller, A. Hansen, J. Chem. Phys., 2023, 158, 124111.
     DOI: 10.1063/5.0137838
   
   with help from (in alphabetical order)
   P. Atkinson, C. Bannwarth, F. Bohle, G. Brandenburg, E. Caldeweyher
   M. Checinski, S. Dohm, S. Ehlert, S. Ehrlich, I. Gerasimov, C. Hölzer
   A. Katbashev, J. Kohn, J. Koopman, C. Lavigne, S. Lehtola, F. März, M. Müller,
   F. Musil, H. Neugebauer, J. Pisarek, C. Plett, P. Pracht, F. Pultar,
   J. Seibert, P. Shushkov, S. Spicher, M. Stahn, M. Steiner, T. Strunk,
   J. Stückrath, T. Rose, and J. Unsleber
   
 * started run on 2026/08/20 at 02:45:56.453     
   ID    Z sym.   atoms
    1    6 C      1-4, 13
    2    7 N      5, 6, 14, 15
    3    1 H      7-12, 16, 17

           -------------------------------------------------
          |                Calculation Setup                |
           -------------------------------------------------

          program call               : xtb ts-study/structures/pathway_B_TS_optimized.xyz --gfn 2
          coordinate file            : ts-study/structures/pathway_B_TS_optimized.xyz
          omp threads                :                    16


molecular fragmentation (1/2 indicates fragments):
11111111111122222
# atoms in fragment 1/2:    12     5
 fragment masses (1/2) :       82.10       42.04
CMA distance (Bohr)    :  11.249
constraining FC (au)   :  0.0500

           -------------------------------------------------
          |                 G F N 2 - x T B                 |
           -------------------------------------------------

        Reference                      10.1021/acs.jctc.8b01176
      * Hamiltonian:
        H0-scaling (s, p, d)           1.850000    2.230000    2.230000
        zeta-weighting                 0.500000
      * Dispersion:
        s8                             2.700000
        a1                             0.520000
        a2                             5.000000
        s9                             5.000000
      * Repulsion:
        kExp                           1.500000    1.000000
        rExp                           1.000000
      * Coulomb:
        alpha                          2.000000
        third order                    shell-resolved
        anisotropic                    true
        a3                             3.000000
        a5                             4.000000
        cn-shift                       1.200000
        cn-exp                         4.000000
        max-rad                        5.000000

q/qsh data taken from xtbrestart
CAMM data taken from xtbrestart

          ...................................................
          :                      SETUP                      :
          :.................................................:
          :  # basis functions                  44          :
          :  # atomic orbitals                  44          :
          :  # shells                           26          :
          :  # electrons                        48          :
          :  max. iterations                   250          :
          :  Hamiltonian                  GFN2-xTB          :
          :  restarted?                       true          :
          :  GBSA solvation                  false          :
          :  PC potential                    false          :
          :  electronic temp.          300.0000000     K    :
          :  accuracy                    1.0000000          :
          :  -> integral cutoff          0.2500000E+02      :
          :  -> integral neglect         0.1000000E-07      :
          :  -> SCF convergence          0.1000000E-05 Eh   :
          :  -> wf. convergence          0.1000000E-03 e    :
          :  Broyden damping             0.4000000          :
          :  net charge                          0          :
          :  unpaired electrons                  0          :
          ...................................................

 iter      E             dE          RMSdq      gap      omega  full diag
   1    -26.7527475 -0.267527E+02  0.312E+00    2.63       0.0  T
   2    -26.7813211 -0.285737E-01  0.193E+00    2.55       1.0  T
   3    -26.7820789 -0.757809E-03  0.929E-01    2.56       1.0  T
   4    -26.7817709  0.307993E-03  0.440E-01    2.41       1.0  T
   5    -26.7840151 -0.224419E-02  0.120E-01    2.49       1.0  T
   6    -26.7840448 -0.296341E-04  0.935E-02    2.45       1.0  T
   7    -26.7841137 -0.689445E-04  0.130E-02    2.46       1.9  T
   8    -26.7841141 -0.350579E-06  0.498E-03    2.46       4.9  T
   9    -26.7841141 -0.593655E-07  0.146E-03    2.46      16.6  T
  10    -26.7841141 -0.668487E-08  0.581E-04    2.46      41.8  T
  11    -26.7841141 -0.153550E-08  0.216E-04    2.46     112.4  T

   *** convergence criteria satisfied after 11 iterations ***

         #    Occupation            Energy/Eh            Energy/eV
      -------------------------------------------------------------
         1        2.0000           -0.7066942             -19.2301
       ...           ...                  ...                  ...
        18        2.0000           -0.4731807             -12.8759
        19        2.0000           -0.4702078             -12.7950
        20        2.0000           -0.4553625             -12.3910
        21        2.0000           -0.4051662             -11.0251
        22        2.0000           -0.3935862             -10.7100
        23        2.0000           -0.3886091             -10.5746
        24        2.0000           -0.3767914             -10.2530 (HOMO)
        25                         -0.2862681              -7.7898 (LUMO)
        26                         -0.2095762              -5.7029
        27                         -0.2030127              -5.5243
        28                         -0.1550191              -4.2183
        29                          0.0081127               0.2208
       ...                                ...                  ...
        44                          1.0518783              28.6231
      -------------------------------------------------------------
                  HL-Gap            0.0905233 Eh            2.4633 eV
             Fermi-level           -0.3315297 Eh           -9.0214 eV

 SCC (total)                   0 d,  0 h,  0 min,  2.400 sec
 SCC setup                      ...        0 min,  0.023 sec (  0.946%)
 Dispersion                     ...        0 min,  0.043 sec (  1.797%)
 classical contributions        ...        0 min,  0.032 sec (  1.334%)
 integral evaluation            ...        0 min,  0.087 sec (  3.632%)
 iterations                     ...        0 min,  1.926 sec ( 80.236%)
 molecular gradient             ...        0 min,  0.289 sec ( 12.048%)
 printout                       ...        0 min,  0.000 sec (  0.006%)

         :::::::::::::::::::::::::::::::::::::::::::::::::::::
         ::                     SUMMARY                     ::
         :::::::::::::::::::::::::::::::::::::::::::::::::::::
         :: total energy             -26.368311892409 Eh    ::
         :: gradient norm              0.002130991704 Eh/a0 ::
         :: HOMO-LUMO gap              2.463264193455 eV    ::
         ::.................................................::
         :: SCC energy               -26.784159189984 Eh    ::
         :: -> isotropic ES            0.017111736120 Eh    ::
         :: -> anisotropic ES          0.004459113030 Eh    ::
         :: -> anisotropic XC          0.037684807263 Eh    ::
         :: -> dispersion             -0.010084277761 Eh    ::
         :: repulsion energy           0.415847297575 Eh    ::
         :: add. restraining           0.000000000000 Eh    ::
         :: total charge               0.000000000000 e     ::
         :::::::::::::::::::::::::::::::::::::::::::::::::::::

           -------------------------------------------------
          |                Property Printout                |
           -------------------------------------------------

    * Orbital Energies and Occupations

         #    Occupation            Energy/Eh            Energy/eV
      -------------------------------------------------------------
         1        2.0000           -0.7066942             -19.2301
       ...           ...                  ...                  ...
        12        2.0000           -0.5414385             -14.7333
        13        2.0000           -0.5360142             -14.5857
        14        2.0000           -0.4984678             -13.5640
        15        2.0000           -0.4951029             -13.4724
        16        2.0000           -0.4887420             -13.2993
        17        2.0000           -0.4863411             -13.2340
        18        2.0000           -0.4731807             -12.8759
        19        2.0000           -0.4702078             -12.7950
        20        2.0000           -0.4553625             -12.3910
        21        2.0000           -0.4051662             -11.0251
        22        2.0000           -0.3935862             -10.7100
        23        2.0000           -0.3886091             -10.5746
        24        2.0000           -0.3767914             -10.2530 (HOMO)
        25                         -0.2862681              -7.7898 (LUMO)
        26                         -0.2095762              -5.7029
        27                         -0.2030127              -5.5243
        28                         -0.1550191              -4.2183
        29                          0.0081127               0.2208
        30                          0.0954971               2.5986
        31                          0.1056504               2.8749
        32                          0.1450793               3.9478
        33                          0.1602894               4.3617
        34                          0.1668315               4.5397
        35                          0.2032484               5.5307
       ...                                ...                  ...
        44                          1.0518783              28.6231
      -------------------------------------------------------------
                  HL-Gap            0.0905233 Eh            2.4633 eV
             Fermi-level           -0.3315297 Eh           -9.0214 eV

     #   Z          covCN         q      C6AA      α(0)
     1   6 C        3.754    -0.112    22.699     6.794
     2   6 C        3.058     0.039    27.076     8.533
     3   6 C        3.030    -0.081    30.004     8.985
     4   6 C        3.127     0.028    27.197     8.539
     5   7 N        1.992    -0.226    26.732     7.668
     6   7 N        3.020    -0.007    21.387     6.869
     7   1 H        0.925     0.055     2.254     2.348
     8   1 H        0.924     0.047     2.363     2.404
     9   1 H        0.924     0.046     2.374     2.409
    10   1 H        0.927     0.024     2.671     2.556
    11   1 H        0.926     0.030     2.590     2.517
    12   1 H        0.860     0.157     1.352     1.821
    13   6 C        2.771    -0.153    31.919     9.253
    14   7 N        1.891     0.215    18.291     6.340
    15   7 N        0.989    -0.203    24.974     7.185
    16   1 H        0.926     0.070     2.081     2.256
    17   1 H        0.926     0.071     2.073     2.251

 Mol. C6AA /au·bohr⁶  :       3268.063816
 Mol. C8AA /au·bohr⁸  :      73959.327197
 Mol. α(0) /au        :         88.727728


Wiberg/Mayer (AO) data.
largest (>0.10) Wiberg bond orders for each atom

 ---------------------------------------------------------------------------
     #   Z sym  total        # sym  WBO       # sym  WBO       # sym  WBO
 ---------------------------------------------------------------------------
     1   6 C    3.996 --     2 C    1.028     7 H    0.984     9 H    0.972
                             8 H    0.972
     2   6 C    3.959 --     3 C    1.492     6 N    1.258     1 C    1.028
                             5 N    0.158
     3   6 C    3.977 --     2 C    1.492     4 C    1.358    10 H    0.975
     4   6 C    3.979 --     5 N    1.527     3 C    1.358    11 H    0.970
     5   7 N    2.967 --     4 C    1.527     6 N    1.203     2 C    0.158
     6   7 N    3.609 --     2 C    1.258     5 N    1.203    12 H    0.942
     7   1 H    0.997 --     1 C    0.984
     8   1 H    0.998 --     1 C    0.972
     9   1 H    0.998 --     1 C    0.972
    10   1 H    0.999 --     3 C    0.975
    11   1 H    0.999 --     4 C    0.970
    12   1 H    0.975 --     6 N    0.942
    13   6 C    3.866 --    14 N    1.533    16 H    0.929    17 H    0.928
                            15 N    0.474
    14   7 N    3.803 --    15 N    2.256    13 C    1.533
    15   7 N    2.848 --    14 N    2.256    13 C    0.474
    16   1 H    0.995 --    13 C    0.929
    17   1 H    0.995 --    13 C    0.928
Note: The following floating-point exceptions are signalling: IEEE_UNDERFLOW_FLAG IEEE_DENORMAL
normal termination of xtb
 ---------------------------------------------------------------------------

Topologies differ in total number of bonds
Writing topology from bond orders to xtbtopo.mol

molecular dipole:
                 x           y           z       tot (Debye)
 q only:       -0.527       0.095      -0.005
   full:       -0.768       0.438      -0.010       2.248
molecular quadrupole (traceless):
                xx          xy          yy          xz          yz          zz
 q only:        3.761      -4.738      -8.472      -0.008       0.032       4.711
  q+dip:        5.224      -7.474     -12.084       0.007       0.054       6.860
   full:        5.342      -7.743     -13.676       0.007       0.069       8.334


           -------------------------------------------------
          | TOTAL ENERGY              -26.368311892409 Eh   |
          | GRADIENT NORM               0.002130991704 Eh/α |
          | HOMO-LUMO GAP               2.463264193455 eV   |
           -------------------------------------------------

------------------------------------------------------------------------
 * finished run on 2026/08/20 at 02:45:59.175     
------------------------------------------------------------------------
 total:
 * wall-time:     0 d,  0 h,  0 min,  2.722 sec
 *  cpu-time:     0 d,  0 h,  0 min, 13.674 sec
 * ratio c/w:     5.024 speedup
 SCF:
 * wall-time:     0 d,  0 h,  0 min,  2.400 sec
 *  cpu-time:     0 d,  0 h,  0 min, 12.428 sec
 * ratio c/w:     5.178 speedup

