      -----------------------------------------------------------      
     |                   =====================                   |     
     |                           x T B                           |     
     |                   =====================                   |     
     |                         S. Grimme                         |     
     |          Mulliken Center for Theoretical Chemistry        |     
     |                    University of Bonn                     |     
      -----------------------------------------------------------      

   * xtb version 6.7.1 (edcfbbe) compiled by 'conda@3ef47c1a292c' on 2024-11-25

   xtb is free software: you can redistribute it and/or modify it under
   the terms of the GNU Lesser General Public License as published by
   the Free Software Foundation, either version 3 of the License, or
   (at your option) any later version.
   
   xtb is distributed in the hope that it will be useful,
   but WITHOUT ANY WARRANTY; without even the implied warranty of
   MERCHANTABILITY or FITNESS FOR A PARTICULAR PURPOSE.  See the
   GNU Lesser General Public License for more details.
   
   Cite this work as:
   * C. Bannwarth, E. Caldeweyher, S. Ehlert, A. Hansen, P. Pracht,
     J. Seibert, S. Spicher, S. Grimme, WIREs Comput. Mol. Sci., 2020, 11,
     e01493. DOI: 10.1002/wcms.1493
   
   for GFN2-xTB:
   * C. Bannwarth, S. Ehlert and S. Grimme., J. Chem. Theory Comput., 2019,
     15, 1652-1671. DOI: 10.1021/acs.jctc.8b01176
   for GFN1-xTB:
   * S. Grimme, C. Bannwarth, P. Shushkov, J. Chem. Theory Comput., 2017,
     13, 1989-2009. DOI: 10.1021/acs.jctc.7b00118
   for GFN0-xTB:
   * P. Pracht, E. Caldeweyher, S. Ehlert, S. Grimme, ChemRxiv, 2019, preprint.
     DOI: 10.26434/chemrxiv.8326202.v1
   for GFN-FF:
   * S. Spicher and S. Grimme, Angew. Chem. Int. Ed., 2020, 59, 15665-15673.
     DOI: 10.1002/anie.202004239
   
   for ALPB and GBSA implicit solvation:
   * S. Ehlert, M. Stahn, S. Spicher, S. Grimme, J. Chem. Theory Comput.,
     2021, 17, 4250-4261. DOI: 10.1021/acs.jctc.1c00471
   
   for ddCOSMO and CPCM-X implicit solvation:
   * M. Stahn, S. Ehlert, S. Grimme, J. Phys. Chem. A,
     2023, XX, XXXX-XXXX. DOI: 10.1021/acs.jpca.3c04382
   
   for DFT-D4:
   * E. Caldeweyher, C. Bannwarth and S. Grimme, J. Chem. Phys., 2017,
     147, 034112. DOI: 10.1063/1.4993215
   * E. Caldeweyher, S. Ehlert, A. Hansen, H. Neugebauer, S. Spicher,
     C. Bannwarth and S. Grimme, J. Chem. Phys., 2019, 150, 154122.
     DOI: 10.1063/1.5090222
   * E. Caldeweyher, J.-M. Mewes, S. Ehlert and S. Grimme, Phys. Chem. Chem. Phys.
     2020, 22, 8499-8512. DOI: 10.1039/D0CP00502A
   
   for sTDA-xTB:
   * S. Grimme and C. Bannwarth, J. Chem. Phys., 2016, 145, 054103.
     DOI: 10.1063/1.4959605
   
   in the mass-spec context:
   * V. Asgeirsson, C. Bauer and S. Grimme, Chem. Sci., 2017, 8, 4879.
     DOI: 10.1039/c7sc00601b
   * J. Koopman and S. Grimme, ACS Omega 2019, 4, 12, 15120-15133.
     DOI: 10.1021/acsomega.9b02011
   
   for metadynamics refer to:
   * S. Grimme, J. Chem. Theory Comput., 2019, 155, 2847-2862
     DOI: 10.1021/acs.jctc.9b00143
   
   for SPH calculations refer to:
   * S. Spicher and S. Grimme, J. Chem. Theory Comput., 2021, 17, 1701-1714
     DOI: 10.1021/acs.jctc.0c01306
   
   for ONIOM refer to:
   * C. Plett, A. Katbashev, S. Ehlert, S. Grimme, M. Bursch,
     Phys. Chem. Chem. Phys., 2023, 25, 17860-17868. DOI: 10.1039/D3CP02178E
   
   for DIPRO refer to:
   * J. Kohn, N. Gildemeister, S. Grimme, D. Fazzi, A. Hansen,
     J. Chem. Phys., 2023, just accepted.
   
   for PTB refer to:
   * S. Grimme, M. Mueller, A. Hansen, J. Chem. Phys., 2023, 158, 124111.
     DOI: 10.1063/5.0137838
   
   with help from (in alphabetical order)
   P. Atkinson, C. Bannwarth, F. Bohle, G. Brandenburg, E. Caldeweyher
   M. Checinski, S. Dohm, S. Ehlert, S. Ehrlich, I. Gerasimov, C. Hölzer
   A. Katbashev, J. Kohn, J. Koopman, C. Lavigne, S. Lehtola, F. März, M. Müller,
   F. Musil, H. Neugebauer, J. Pisarek, C. Plett, P. Pracht, F. Pultar,
   J. Seibert, P. Shushkov, S. Spicher, M. Stahn, M. Steiner, T. Strunk,
   J. Stückrath, T. Rose, and J. Unsleber
   
 * started run on 2026/08/20 at 02:45:51.098     
   ID    Z sym.   atoms
    1    6 C      1-4, 7
    2    7 N      5, 6, 16, 17
    3    1 H      8-15

           -------------------------------------------------
          |                Calculation Setup                |
           -------------------------------------------------

          program call               : xtb ts-study/structures/pathway_B_product.xyz --gfn 2
          coordinate file            : ts-study/structures/pathway_B_product.xyz
          omp threads                :                    16


molecular fragmentation (1/2 indicates fragments):
11111111111111122
# atoms in fragment 1/2:    15     2
 fragment masses (1/2) :       96.13       28.01
CMA distance (Bohr)    :  11.376
constraining FC (au)   :  0.0500

           -------------------------------------------------
          |                 G F N 2 - x T B                 |
           -------------------------------------------------

        Reference                      10.1021/acs.jctc.8b01176
      * Hamiltonian:
        H0-scaling (s, p, d)           1.850000    2.230000    2.230000
        zeta-weighting                 0.500000
      * Dispersion:
        s8                             2.700000
        a1                             0.520000
        a2                             5.000000
        s9                             5.000000
      * Repulsion:
        kExp                           1.500000    1.000000
        rExp                           1.000000
      * Coulomb:
        alpha                          2.000000
        third order                    shell-resolved
        anisotropic                    true
        a3                             3.000000
        a5                             4.000000
        cn-shift                       1.200000
        cn-exp                         4.000000
        max-rad                        5.000000

q/qsh data taken from xtbrestart
CAMM data taken from xtbrestart

          ...................................................
          :                      SETUP                      :
          :.................................................:
          :  # basis functions                  44          :
          :  # atomic orbitals                  44          :
          :  # shells                           26          :
          :  # electrons                        48          :
          :  max. iterations                   250          :
          :  Hamiltonian                  GFN2-xTB          :
          :  restarted?                       true          :
          :  GBSA solvation                  false          :
          :  PC potential                    false          :
          :  electronic temp.          300.0000000     K    :
          :  accuracy                    1.0000000          :
          :  -> integral cutoff          0.2500000E+02      :
          :  -> integral neglect         0.1000000E-07      :
          :  -> SCF convergence          0.1000000E-05 Eh   :
          :  -> wf. convergence          0.1000000E-03 e    :
          :  Broyden damping             0.4000000          :
          :  net charge                          0          :
          :  unpaired electrons                  0          :
          ...................................................

 iter      E             dE          RMSdq      gap      omega  full diag
   1    -26.6894178 -0.266894E+02  0.529E+00    1.73       0.0  T
   2    -26.7659789 -0.765611E-01  0.271E+00    2.06       1.0  T
   3    -26.7737007 -0.772179E-02  0.142E+00    1.88       1.0  T
   4    -26.7814058 -0.770514E-02  0.212E-01    1.97       1.0  T
   5    -26.7814773 -0.714404E-04  0.118E-01    1.95       1.0  T
   6    -26.7814680  0.925265E-05  0.433E-02    1.95       1.0  T
   7    -26.7814925 -0.245216E-04  0.935E-03    1.95       2.6  T
   8    -26.7814927 -0.122020E-06  0.421E-03    1.95       5.8  T
   9    -26.7814927 -0.111773E-07  0.819E-04    1.95      29.6  T
  10    -26.7814927 -0.327507E-08  0.394E-04    1.95      61.5  T

   *** convergence criteria satisfied after 10 iterations ***

         #    Occupation            Energy/Eh            Energy/eV
      -------------------------------------------------------------
         1        2.0000           -0.7240205             -19.7016
       ...           ...                  ...                  ...
        18        2.0000           -0.4708662             -12.8129
        19        2.0000           -0.4588600             -12.4862
        20        2.0000           -0.4583477             -12.4723
        21        2.0000           -0.4433597             -12.0644
        22        2.0000           -0.3857353             -10.4964
        23        2.0000           -0.3809564             -10.3664
        24        2.0000           -0.3780907             -10.2884 (HOMO)
        25                         -0.3065135              -8.3407 (LUMO)
        26                         -0.3065062              -8.3405
        27                         -0.1966046              -5.3499
        28                         -0.1436926              -3.9101
        29                          0.0149571               0.4070
       ...                                ...                  ...
        44                          0.7633290              20.7712
      -------------------------------------------------------------
                  HL-Gap            0.0715773 Eh            1.9477 eV
             Fermi-level           -0.3423021 Eh           -9.3145 eV

 SCC (total)                   0 d,  0 h,  0 min,  1.995 sec
 SCC setup                      ...        0 min,  0.018 sec (  0.916%)
 Dispersion                     ...        0 min,  0.066 sec (  3.302%)
 classical contributions        ...        0 min,  0.030 sec (  1.487%)
 integral evaluation            ...        0 min,  0.099 sec (  4.948%)
 iterations                     ...        0 min,  1.509 sec ( 75.634%)
 molecular gradient             ...        0 min,  0.273 sec ( 13.704%)
 printout                       ...        0 min,  0.000 sec (  0.008%)

         :::::::::::::::::::::::::::::::::::::::::::::::::::::
         ::                     SUMMARY                     ::
         :::::::::::::::::::::::::::::::::::::::::::::::::::::
         :: total energy             -26.389971955444 Eh    ::
         :: gradient norm              0.001295860150 Eh/a0 ::
         :: HOMO-LUMO gap              1.947716985606 eV    ::
         ::.................................................::
         :: SCC energy               -26.781511764976 Eh    ::
         :: -> isotropic ES            0.011652443421 Eh    ::
         :: -> anisotropic ES          0.002462381374 Eh    ::
         :: -> anisotropic XC          0.043905171727 Eh    ::
         :: -> dispersion             -0.011143876206 Eh    ::
         :: repulsion energy           0.391539809533 Eh    ::
         :: add. restraining           0.000000000000 Eh    ::
         :: total charge              -0.000000000000 e     ::
         :::::::::::::::::::::::::::::::::::::::::::::::::::::

           -------------------------------------------------
          |                Property Printout                |
           -------------------------------------------------

    * Orbital Energies and Occupations

         #    Occupation            Energy/Eh            Energy/eV
      -------------------------------------------------------------
         1        2.0000           -0.7240205             -19.7016
       ...           ...                  ...                  ...
        12        2.0000           -0.5484089             -14.9230
        13        2.0000           -0.5237269             -14.2513
        14        2.0000           -0.4942694             -13.4498
        15        2.0000           -0.4936565             -13.4331
        16        2.0000           -0.4851288             -13.2010
        17        2.0000           -0.4784033             -13.0180
        18        2.0000           -0.4708662             -12.8129
        19        2.0000           -0.4588600             -12.4862
        20        2.0000           -0.4583477             -12.4723
        21        2.0000           -0.4433597             -12.0644
        22        2.0000           -0.3857353             -10.4964
        23        2.0000           -0.3809564             -10.3664
        24        2.0000           -0.3780907             -10.2884 (HOMO)
        25                         -0.3065135              -8.3407 (LUMO)
        26                         -0.3065062              -8.3405
        27                         -0.1966046              -5.3499
        28                         -0.1436926              -3.9101
        29                          0.0149571               0.4070
        30                          0.1099785               2.9927
        31                          0.1222103               3.3255
        32                          0.1394824               3.7955
        33                          0.1613870               4.3916
        34                          0.1818308               4.9479
        35                          0.1834782               4.9927
       ...                                ...                  ...
        44                          0.7633290              20.7712
      -------------------------------------------------------------
                  HL-Gap            0.0715773 Eh            1.9477 eV
             Fermi-level           -0.3423021 Eh           -9.3145 eV

     #   Z          covCN         q      C6AA      α(0)
     1   6 C        3.754    -0.108    22.620     6.782
     2   6 C        3.069     0.024    27.405     8.584
     3   6 C        3.026    -0.087    30.153     9.007
     4   6 C        3.117     0.022    27.344     8.565
     5   7 N        2.005    -0.246    27.219     7.738
     6   7 N        3.049     0.076    19.916     6.628
     7   6 C        3.692    -0.061    21.859     6.690
     8   1 H        0.925     0.050     2.317     2.380
     9   1 H        0.924     0.045     2.387     2.416
    10   1 H        0.924     0.045     2.388     2.417
    11   1 H        0.926     0.018     2.763     2.600
    12   1 H        0.926     0.024     2.679     2.560
    13   1 H        0.925     0.083     1.945     2.181
    14   1 H        0.924     0.058     2.223     2.331
    15   1 H        0.924     0.058     2.227     2.333
    16   7 N        0.981    -0.005    21.028     6.597
    17   7 N        0.981     0.005    20.858     6.570

 Mol. C6AA /au·bohr⁶  :       3183.563260
 Mol. C8AA /au·bohr⁸  :      71459.916197
 Mol. α(0) /au        :         86.380428


Wiberg/Mayer (AO) data.
largest (>0.10) Wiberg bond orders for each atom

 ---------------------------------------------------------------------------
     #   Z sym  total        # sym  WBO       # sym  WBO       # sym  WBO
 ---------------------------------------------------------------------------
     1   6 C    3.997 --     2 C    1.030     8 H    0.984     9 H    0.971
                            10 H    0.971
     2   6 C    3.959 --     3 C    1.474     6 N    1.259     1 C    1.030
                             5 N    0.147
     3   6 C    3.976 --     2 C    1.474     4 C    1.371    11 H    0.975
     4   6 C    3.979 --     5 N    1.507     3 C    1.371    12 H    0.970
     5   7 N    2.961 --     4 C    1.507     6 N    1.200     2 C    0.147
     6   7 N    3.664 --     2 C    1.259     5 N    1.200     7 C    1.006
     7   6 C    3.971 --     6 N    1.006    13 H    0.978    14 H    0.973
                            15 H    0.973
     8   1 H    0.997 --     1 C    0.984
     9   1 H    0.998 --     1 C    0.971
    10   1 H    0.998 --     1 C    0.971
    11   1 H    1.000 --     3 C    0.975
    12   1 H    0.999 --     4 C    0.970
    13   1 H    0.993 --     7 C    0.978
    14   1 H    0.997 --     7 C    0.973
    15   1 H    0.997 --     7 C    0.973
    16   7 N    3.000 --    17 N    3.000
    17   7 N    3.000 --    16 N    3.000
 ---------------------------------------------------------------------------

Topologies differ in total number of bonds
Writing topology from bond orders to xtbtopo.mol
Note: The following floating-point exceptions are signalling: IEEE_UNDERFLOW_FLAG IEEE_DENORMAL
normal termination of xtb

molecular dipole:
                 x           y           z       tot (Debye)
 q only:        1.002       0.296      -0.001
   full:        1.214      -0.027      -0.002       3.086
molecular quadrupole (traceless):
                xx          xy          yy          xz          yz          zz
 q only:        0.118       2.388       1.665       0.030       0.011      -1.783
  q+dip:        0.528       3.425       1.338       0.036       0.006      -1.865
   full:        0.150       2.639       0.170       0.032      -0.007      -0.320


           -------------------------------------------------
          | TOTAL ENERGY              -26.389971955444 Eh   |
          | GRADIENT NORM               0.001295860150 Eh/α |
          | HOMO-LUMO GAP               1.947716985606 eV   |
           -------------------------------------------------

------------------------------------------------------------------------
 * finished run on 2026/08/20 at 02:45:53.426     
------------------------------------------------------------------------
 total:
 * wall-time:     0 d,  0 h,  0 min,  2.327 sec
 *  cpu-time:     0 d,  0 h,  0 min, 12.726 sec
 * ratio c/w:     5.468 speedup
 SCF:
 * wall-time:     0 d,  0 h,  0 min,  1.995 sec
 *  cpu-time:     0 d,  0 h,  0 min, 11.381 sec
 * ratio c/w:     5.704 speedup

