17
Properties=species:S:1:pos:R:3 pbc="F F F"
C       -2.26575000      -0.06964000      -0.00308000
C       -0.79497000       0.08229000      -0.00173000
C        0.01585000       1.19578000       0.00000000
C        1.32653000       0.68640000       0.00635000
N        1.35255000      -0.64775000       0.00479000
N        0.05404000      -0.99192000      -0.00362000
H       -2.75925000       0.90730000       0.02056000
H       -2.59684000      -0.63652000       0.87288000
H       -2.59870000      -0.59577000      -0.90330000
H       -0.29413000       2.23092000      -0.00143000
H        2.26172000       1.23131000       0.01198000
H       -0.18055000      -1.97883000      -0.01051000
C       -0.59346749      -3.71595605      -0.02263755
N       -0.89640849      -4.99041577      -0.03153504
N       -1.16003654      -6.09948759      -0.03927790
H       -1.42700599      -3.01363710      -0.02367407
H        0.46692988      -3.46388951      -0.01493809
