17
 energy: -26.368415803425 gnorm: 0.001353191430 xtb: 6.7.1 (edcfbbe)
C           -2.23191372305881        0.14389401598315       -0.00192741691333
C           -0.75818636050408        0.33002432014368        0.00410970690250
C            0.02831327217522        1.46087086681911       -0.00307548850958
C            1.34840867932804        0.98568358825734        0.00483000898626
N            1.37817245552038       -0.33084980800667        0.02258472495497
N            0.10189739303262       -0.71433227350034        0.01803499252828
H           -2.72608528208215        1.11085511592762        0.00816395211698
H           -2.55296285577523       -0.42052205335453        0.87389840625704
H           -2.54844397490187       -0.39894530502870       -0.89308799605933
H           -0.29844331589009        2.48003486407506       -0.01407534430945
H            2.26012344447837        1.54853374559512        0.00343499661075
H           -0.12488408322575       -1.69519823660945        0.02817651251437
C           -0.67766030229213       -4.36843831759296       -0.04371894280248
N           -0.95356416969198       -5.59195562707904       -0.03265243267539
N           -1.20479268596667       -6.69205004838585       -0.02077893015292
H           -1.47986754696820       -3.65621116187796       -0.05596523499057
H            0.35040042582228       -4.06120970536562       -0.03712416445807
