      -----------------------------------------------------------      
     |                   =====================                   |     
     |                           x T B                           |     
     |                   =====================                   |     
     |                         S. Grimme                         |     
     |          Mulliken Center for Theoretical Chemistry        |     
     |                    University of Bonn                     |     
      -----------------------------------------------------------      

   * xtb version 6.7.1 (edcfbbe) compiled by 'conda@3ef47c1a292c' on 2024-11-25

   xtb is free software: you can redistribute it and/or modify it under
   the terms of the GNU Lesser General Public License as published by
   the Free Software Foundation, either version 3 of the License, or
   (at your option) any later version.
   
   xtb is distributed in the hope that it will be useful,
   but WITHOUT ANY WARRANTY; without even the implied warranty of
   MERCHANTABILITY or FITNESS FOR A PARTICULAR PURPOSE.  See the
   GNU Lesser General Public License for more details.
   
   Cite this work as:
   * C. Bannwarth, E. Caldeweyher, S. Ehlert, A. Hansen, P. Pracht,
     J. Seibert, S. Spicher, S. Grimme, WIREs Comput. Mol. Sci., 2020, 11,
     e01493. DOI: 10.1002/wcms.1493
   
   for GFN2-xTB:
   * C. Bannwarth, S. Ehlert and S. Grimme., J. Chem. Theory Comput., 2019,
     15, 1652-1671. DOI: 10.1021/acs.jctc.8b01176
   for GFN1-xTB:
   * S. Grimme, C. Bannwarth, P. Shushkov, J. Chem. Theory Comput., 2017,
     13, 1989-2009. DOI: 10.1021/acs.jctc.7b00118
   for GFN0-xTB:
   * P. Pracht, E. Caldeweyher, S. Ehlert, S. Grimme, ChemRxiv, 2019, preprint.
     DOI: 10.26434/chemrxiv.8326202.v1
   for GFN-FF:
   * S. Spicher and S. Grimme, Angew. Chem. Int. Ed., 2020, 59, 15665-15673.
     DOI: 10.1002/anie.202004239
   
   for ALPB and GBSA implicit solvation:
   * S. Ehlert, M. Stahn, S. Spicher, S. Grimme, J. Chem. Theory Comput.,
     2021, 17, 4250-4261. DOI: 10.1021/acs.jctc.1c00471
   
   for ddCOSMO and CPCM-X implicit solvation:
   * M. Stahn, S. Ehlert, S. Grimme, J. Phys. Chem. A,
     2023, XX, XXXX-XXXX. DOI: 10.1021/acs.jpca.3c04382
   
   for DFT-D4:
   * E. Caldeweyher, C. Bannwarth and S. Grimme, J. Chem. Phys., 2017,
     147, 034112. DOI: 10.1063/1.4993215
   * E. Caldeweyher, S. Ehlert, A. Hansen, H. Neugebauer, S. Spicher,
     C. Bannwarth and S. Grimme, J. Chem. Phys., 2019, 150, 154122.
     DOI: 10.1063/1.5090222
   * E. Caldeweyher, J.-M. Mewes, S. Ehlert and S. Grimme, Phys. Chem. Chem. Phys.
     2020, 22, 8499-8512. DOI: 10.1039/D0CP00502A
   
   for sTDA-xTB:
   * S. Grimme and C. Bannwarth, J. Chem. Phys., 2016, 145, 054103.
     DOI: 10.1063/1.4959605
   
   in the mass-spec context:
   * V. Asgeirsson, C. Bauer and S. Grimme, Chem. Sci., 2017, 8, 4879.
     DOI: 10.1039/c7sc00601b
   * J. Koopman and S. Grimme, ACS Omega 2019, 4, 12, 15120-15133.
     DOI: 10.1021/acsomega.9b02011
   
   for metadynamics refer to:
   * S. Grimme, J. Chem. Theory Comput., 2019, 155, 2847-2862
     DOI: 10.1021/acs.jctc.9b00143
   
   for SPH calculations refer to:
   * S. Spicher and S. Grimme, J. Chem. Theory Comput., 2021, 17, 1701-1714
     DOI: 10.1021/acs.jctc.0c01306
   
   for ONIOM refer to:
   * C. Plett, A. Katbashev, S. Ehlert, S. Grimme, M. Bursch,
     Phys. Chem. Chem. Phys., 2023, 25, 17860-17868. DOI: 10.1039/D3CP02178E
   
   for DIPRO refer to:
   * J. Kohn, N. Gildemeister, S. Grimme, D. Fazzi, A. Hansen,
     J. Chem. Phys., 2023, just accepted.
   
   for PTB refer to:
   * S. Grimme, M. Mueller, A. Hansen, J. Chem. Phys., 2023, 158, 124111.
     DOI: 10.1063/5.0137838
   
   with help from (in alphabetical order)
   P. Atkinson, C. Bannwarth, F. Bohle, G. Brandenburg, E. Caldeweyher
   M. Checinski, S. Dohm, S. Ehlert, S. Ehrlich, I. Gerasimov, C. Hölzer
   A. Katbashev, J. Kohn, J. Koopman, C. Lavigne, S. Lehtola, F. März, M. Müller,
   F. Musil, H. Neugebauer, J. Pisarek, C. Plett, P. Pracht, F. Pultar,
   J. Seibert, P. Shushkov, S. Spicher, M. Stahn, M. Steiner, T. Strunk,
   J. Stückrath, T. Rose, and J. Unsleber
   
 * started run on 2026/08/20 at 02:32:03.632     
   ID    Z sym.   atoms
    1    6 C      1-4, 13
    2    7 N      5, 6, 14, 15
    3    1 H      7-12, 16, 17

           -------------------------------------------------
          |                Calculation Setup                |
           -------------------------------------------------

          program call               : xtb substrate_in.xyz --gfn 2 --opt loose
          coordinate file            : substrate_in.xyz
          omp threads                :                    16


molecular fragmentation (1/2 indicates fragments):
11111111111122222
# atoms in fragment 1/2:    12     5
 fragment masses (1/2) :       82.10       42.04
CMA distance (Bohr)    :   9.423
constraining FC (au)   :  0.0500

           -------------------------------------------------
          |                 G F N 2 - x T B                 |
           -------------------------------------------------

        Reference                      10.1021/acs.jctc.8b01176
      * Hamiltonian:
        H0-scaling (s, p, d)           1.850000    2.230000    2.230000
        zeta-weighting                 0.500000
      * Dispersion:
        s8                             2.700000
        a1                             0.520000
        a2                             5.000000
        s9                             5.000000
      * Repulsion:
        kExp                           1.500000    1.000000
        rExp                           1.000000
      * Coulomb:
        alpha                          2.000000
        third order                    shell-resolved
        anisotropic                    true
        a3                             3.000000
        a5                             4.000000
        cn-shift                       1.200000
        cn-exp                         4.000000
        max-rad                        5.000000


          ...................................................
          :                      SETUP                      :
          :.................................................:
          :  # basis functions                  44          :
          :  # atomic orbitals                  44          :
          :  # shells                           26          :
          :  # electrons                        48          :
          :  max. iterations                   250          :
          :  Hamiltonian                  GFN2-xTB          :
          :  restarted?                      false          :
          :  GBSA solvation                  false          :
          :  PC potential                    false          :
          :  electronic temp.          300.0000000     K    :
          :  accuracy                    1.0000000          :
          :  -> integral cutoff          0.2500000E+02      :
          :  -> integral neglect         0.1000000E-07      :
          :  -> SCF convergence          0.1000000E-05 Eh   :
          :  -> wf. convergence          0.1000000E-03 e    :
          :  Broyden damping             0.4000000          :
          :  net charge                          0          :
          :  unpaired electrons                  0          :
          ...................................................

 iter      E             dE          RMSdq      gap      omega  full diag
   1    -26.5968948 -0.265969E+02  0.462E+00    3.73       0.0  T
   2    -26.6915909 -0.946961E-01  0.311E+00    2.28       1.0  T
   3    -26.7121504 -0.205595E-01  0.182E+00    2.74       1.0  T
   4    -26.6971460  0.150043E-01  0.138E+00    2.06       1.0  T
   5    -26.7228213 -0.256753E-01  0.290E-01    2.26       1.0  T
   6    -26.7232398 -0.418511E-03  0.128E-01    2.22       1.0  T
   7    -26.7233289 -0.890724E-04  0.315E-02    2.24       1.0  T
   8    -26.7233346 -0.569668E-05  0.139E-02    2.24       1.7  T
   9    -26.7233354 -0.758769E-06  0.544E-03    2.24       4.5  T
  10    -26.7233356 -0.281592E-06  0.177E-03    2.24      13.7  T
  11    -26.7233357 -0.256365E-07  0.756E-04    2.24      32.1  T
  12    -26.7233357 -0.633698E-09  0.296E-04    2.24      82.0  T

   *** convergence criteria satisfied after 12 iterations ***

         #    Occupation            Energy/Eh            Energy/eV
      -------------------------------------------------------------
         1        2.0000           -0.7096995             -19.3119
       ...           ...                  ...                  ...
        18        2.0000           -0.4736366             -12.8883
        19        2.0000           -0.4634251             -12.6104
        20        2.0000           -0.4484549             -12.2031
        21        2.0000           -0.3965055             -10.7895
        22        2.0000           -0.3875673             -10.5462
        23        2.0000           -0.3874998             -10.5444
        24        2.0000           -0.3853391             -10.4856 (HOMO)
        25                         -0.3029395              -8.2434 (LUMO)
        26                         -0.2311749              -6.2906
        27                         -0.2086456              -5.6775
        28                         -0.1520490              -4.1375
        29                         -0.0053489              -0.1455
       ...                                ...                  ...
        44                          0.9183810              24.9904
      -------------------------------------------------------------
                  HL-Gap            0.0823995 Eh            2.2422 eV
             Fermi-level           -0.3441393 Eh           -9.3645 eV

 SCC (total)                   0 d,  0 h,  0 min,  8.947 sec
 SCC setup                      ...        0 min,  0.055 sec (  0.617%)
 Dispersion                     ...        0 min,  0.169 sec (  1.894%)
 classical contributions        ...        0 min,  0.136 sec (  1.520%)
 integral evaluation            ...        0 min,  0.199 sec (  2.222%)
 iterations                     ...        0 min,  7.720 sec ( 86.289%)
 molecular gradient             ...        0 min,  0.667 sec (  7.456%)
 printout                       ...        0 min,  0.000 sec (  0.002%)

         :::::::::::::::::::::::::::::::::::::::::::::::::::::
         ::                     SUMMARY                     ::
         :::::::::::::::::::::::::::::::::::::::::::::::::::::
         :: total energy             -26.347131320920 Eh    ::
         :: gradient norm              0.095573610374 Eh/a0 ::
         :: HOMO-LUMO gap              2.242204792780 eV    ::
         ::.................................................::
         :: SCC energy               -26.723350283165 Eh    ::
         :: -> isotropic ES            0.019253425406 Eh    ::
         :: -> anisotropic ES          0.002276713067 Eh    ::
         :: -> anisotropic XC          0.039473864460 Eh    ::
         :: -> dispersion             -0.011156110533 Eh    ::
         :: repulsion energy           0.376218962245 Eh    ::
         :: add. restraining           0.000000000000 Eh    ::
         :: total charge              -0.000000000000 e     ::
         :::::::::::::::::::::::::::::::::::::::::::::::::::::

      ----------------------------------------------------------- 
     |                   =====================                   |
     |                        A N C O P T                        |
     |                   =====================                   |
     |               Approximate Normal Coordinate               |
     |                Rational Function Optimizer                |
      ----------------------------------------------------------- 
      ----------------------------------------------------------- 
     |                   =====================                   |
     |                        A N C O P T                        |
     |                   =====================                   |
     |               Approximate Normal Coordinate               |
     |                Rational Function Optimizer                |
      ----------------------------------------------------------- 

          ...................................................
          :                      SETUP                      :
          :.................................................:
          :   optimization level             loose          :
          :   max. optcycles                   200          :
          :   ANC micro-cycles                  20          :
          :   degrees of freedom                45          :
          :.................................................:
          :   RF solver                   davidson          :
          :   write xtbopt.log                true          :
          :   linear?                        false          :
          :   energy convergence         0.5000000E-04 Eh   :
          :   grad. convergence          0.4000000E-02 Eh/α :
          :   maxmium RF displ.          1.0000000          :
          :   Hlow (freq-cutoff)         0.1000000E-01      :
          :   Hmax (freq-cutoff)         5.0000000          :
          :   S6 in model hess.         20.0000000          :
          ...................................................

generating ANC from exact Hessian ...
Using Lindh-Hessian (1995)
 Shifting diagonal of input Hessian by    9.7708144629033815E-003
 Lowest  eigenvalues of input Hessian
    0.000000    0.000000    0.000000    0.000000    0.000000    0.000000
    0.010000    0.010477    0.010798    0.011264    0.015856    0.017301
    0.018718    0.019861    0.021008    0.033748    0.043214    0.053680
 Highest eigenvalues
    1.564789    1.783560    1.894356    1.988550    2.064137    2.842094


........................................................................
.............................. CYCLE    1 ..............................
........................................................................

 iter      E             dE          RMSdq      gap      omega  full diag
   1    -26.7233357 -0.267233E+02  0.666E-05    2.24       0.0  T
   2    -26.7233357  0.131095E-11  0.432E-05    2.24     562.0  T
   3    -26.7233357  0.630251E-11  0.395E-05    2.24     613.4  T
     SCC iter.                  ...        0 min,  1.397 sec
     gradient                   ...        0 min,  0.661 sec
 * total energy  :   -26.3471313 Eh     change       -0.9031318E-09 Eh
   gradient norm :     0.0955790 Eh/α   predicted     0.0000000E+00 (-100.00%)
   displ. norm   :     0.4457309 α      lambda       -0.1865247E-01
   maximum displ.:     0.3941127 α      in ANC's #7, #10, #28, ...

........................................................................
.............................. CYCLE    2 ..............................
........................................................................

 iter      E             dE          RMSdq      gap      omega  full diag
   1    -26.7703572 -0.267704E+02  0.350E-01    2.48       0.0  T
   2    -26.7707223 -0.365152E-03  0.243E-01    2.54       1.0  T
   3    -26.7711607 -0.438350E-03  0.133E-01    2.49       1.0  T
   4    -26.7712384 -0.777407E-04  0.628E-02    2.53       1.0  T
   5    -26.7712587 -0.203105E-04  0.123E-02    2.52       2.0  T
   6    -26.7712591 -0.356433E-06  0.601E-03    2.52       4.0  T
   7    -26.7712593 -0.200326E-06  0.184E-03    2.52      13.2  T
   8    -26.7712593 -0.103655E-07  0.737E-04    2.52      32.9  T
   9    -26.7712593 -0.372967E-08  0.259E-04    2.52      93.7  T
     SCC iter.                  ...        0 min,  3.133 sec
     gradient                   ...        0 min,  0.715 sec
 * total energy  :   -26.3594668 Eh     change       -0.1233548E-01 Eh
   gradient norm :     0.0286201 Eh/α   predicted    -0.1117913E-01 (  -9.37%)
   displ. norm   :     0.4520243 α      lambda       -0.5255619E-02
   maximum displ.:     0.4344643 α      in ANC's #7, #10, #5, ...

........................................................................
.............................. CYCLE    3 ..............................
........................................................................

 iter      E             dE          RMSdq      gap      omega  full diag
   1    -26.7821025 -0.267821E+02  0.167E-01    2.51       0.0  T
   2    -26.7821050 -0.250405E-05  0.123E-01    2.55       1.0  T
   3    -26.7822938 -0.188881E-03  0.617E-02    2.52       1.0  T
   4    -26.7823137 -0.198508E-04  0.160E-02    2.53       1.5  T
   5    -26.7823141 -0.433681E-06  0.560E-03    2.53       4.3  T
   6    -26.7823143 -0.164657E-06  0.223E-03    2.53      10.9  T
   7    -26.7823143 -0.222993E-07  0.698E-04    2.53      34.7  T
   8    -26.7823143 -0.135145E-08  0.308E-04    2.53      78.8  T
     SCC iter.                  ...        0 min,  2.870 sec
     gradient                   ...        0 min,  0.681 sec
 * total energy  :   -26.3633842 Eh     change       -0.3917378E-02 Eh
   gradient norm :     0.0107436 Eh/α   predicted    -0.3164731E-02 ( -19.21%)
   displ. norm   :     0.5186226 α      lambda       -0.3397321E-02
   maximum displ.:     0.5019648 α      in ANC's #7, #5, #10, ...

........................................................................
.............................. CYCLE    4 ..............................
........................................................................

 iter      E             dE          RMSdq      gap      omega  full diag
   1    -26.7836453 -0.267836E+02  0.116E-01    2.50       0.0  T
   2    -26.7836580 -0.126989E-04  0.710E-02    2.50       1.0  T
   3    -26.7836449  0.131173E-04  0.356E-02    2.51       1.0  T
   4    -26.7836596 -0.146875E-04  0.152E-02    2.50       1.6  T
   5    -26.7836620 -0.239142E-05  0.355E-03    2.50       6.8  T
   6    -26.7836621 -0.102780E-06  0.108E-03    2.50      22.4  T
   7    -26.7836621 -0.494431E-08  0.396E-04    2.50      61.2  T
   8    -26.7836621 -0.144880E-09  0.144E-04    2.50     168.5  T
     SCC iter.                  ...        0 min,  3.339 sec
     gradient                   ...        0 min,  0.798 sec
 * total energy  :   -26.3659676 Eh     change       -0.2583398E-02 Eh
   gradient norm :     0.0066007 Eh/α   predicted    -0.2155521E-02 ( -16.56%)
   displ. norm   :     0.3843291 α      lambda       -0.1424784E-02
   maximum displ.:     0.3697970 α      in ANC's #7, #5, #3, ...

........................................................................
.............................. CYCLE    5 ..............................
........................................................................

 iter      E             dE          RMSdq      gap      omega  full diag
   1    -26.7829102 -0.267829E+02  0.755E-02    2.48       0.0  T
   2    -26.7829121 -0.193645E-05  0.427E-02    2.48       1.0  T
   3    -26.7829066  0.549734E-05  0.230E-02    2.48       1.1  T
   4    -26.7829129 -0.621686E-05  0.399E-03    2.48       6.1  T
   5    -26.7829130 -0.149875E-06  0.125E-03    2.48      19.4  T
   6    -26.7829130 -0.580448E-08  0.471E-04    2.48      51.5  T
   7    -26.7829130 -0.174465E-08  0.212E-04    2.48     114.7  T
     SCC iter.                  ...        0 min,  2.726 sec
     gradient                   ...        0 min,  0.658 sec
 * total energy  :   -26.3670920 Eh     change       -0.1124466E-02 Eh
   gradient norm :     0.0033738 Eh/α   predicted    -0.8176124E-03 ( -27.29%)
   displ. norm   :     0.2790301 α      lambda       -0.6233615E-03
   maximum displ.:     0.2644967 α      in ANC's #7, #5, #3, ...

........................................................................
.............................. CYCLE    6 ..............................
........................................................................

 iter      E             dE          RMSdq      gap      omega  full diag
   1    -26.7828956 -0.267829E+02  0.411E-02    2.47       0.0  T
   2    -26.7828959 -0.311360E-06  0.227E-02    2.48       1.1  T
   3    -26.7828927  0.322520E-05  0.218E-02    2.47       1.1  T
   4    -26.7828975 -0.477547E-05  0.206E-03    2.47      11.8  T
   5    -26.7828975 -0.155709E-07  0.863E-04    2.47      28.1  T
   6    -26.7828975 -0.696141E-08  0.243E-04    2.47      99.7  T
     SCC iter.                  ...        0 min,  2.864 sec
     gradient                   ...        0 min,  0.658 sec
 * total energy  :   -26.3676067 Eh     change       -0.5146648E-03 Eh
   gradient norm :     0.0023435 Eh/α   predicted    -0.3359386E-03 ( -34.73%)
   displ. norm   :     0.2105181 α      lambda       -0.3204521E-03
   maximum displ.:     0.1947923 α      in ANC's #7, #5, #3, ...

........................................................................
.............................. CYCLE    7 ..............................
........................................................................

 iter      E             dE          RMSdq      gap      omega  full diag
   1    -26.7830985 -0.267831E+02  0.196E-02    2.47       0.0  T
   2    -26.7830987 -0.124943E-06  0.106E-02    2.47       2.3  T
   3    -26.7830985  0.129285E-06  0.105E-02    2.47       2.3  T
   4    -26.7830995 -0.926065E-06  0.143E-03    2.47      16.9  T
   5    -26.7830995 -0.362609E-08  0.669E-04    2.47      36.2  T
   6    -26.7830995 -0.390301E-08  0.195E-04    2.47     124.6  T
     SCC iter.                  ...        0 min,  4.164 sec
     gradient                   ...        0 min,  0.720 sec
 * total energy  :   -26.3678830 Eh     change       -0.2763291E-03 Eh
   gradient norm :     0.0022029 Eh/α   predicted    -0.1673276E-03 ( -39.45%)
   displ. norm   :     0.1774545 α      lambda       -0.2034620E-03
   maximum displ.:     0.1591986 α      in ANC's #7, #5, #3, ...

........................................................................
.............................. CYCLE    8 ..............................
........................................................................

 iter      E             dE          RMSdq      gap      omega  full diag
   1    -26.7832871 -0.267833E+02  0.125E-02    2.47       0.0  T
   2    -26.7832873 -0.198231E-06  0.667E-03    2.47       3.6  T
   3    -26.7832873 -0.294838E-07  0.616E-03    2.47       3.9  T
   4    -26.7832876 -0.315758E-06  0.132E-03    2.47      18.4  T
   5    -26.7832876 -0.330355E-08  0.577E-04    2.47      42.1  T
   6    -26.7832877 -0.308798E-08  0.193E-04    2.47     125.9  T
     SCC iter.                  ...        0 min,  2.234 sec
     gradient                   ...        0 min,  0.712 sec
 * total energy  :   -26.3680609 Eh     change       -0.1778493E-03 Eh
   gradient norm :     0.0016307 Eh/α   predicted    -0.1049327E-03 ( -41.00%)
   displ. norm   :     0.2463153 α      lambda       -0.1442619E-03
   maximum displ.:     0.2140491 α      in ANC's #7, #5, #3, ...

........................................................................
.............................. CYCLE    9 ..............................
........................................................................

 iter      E             dE          RMSdq      gap      omega  full diag
   1    -26.7834121 -0.267834E+02  0.234E-02    2.47       0.0  T
   2    -26.7834126 -0.557369E-06  0.130E-02    2.47       1.9  T
   3    -26.7834120  0.648915E-06  0.108E-02    2.47       2.2  T
   4    -26.7834132 -0.121556E-05  0.213E-03    2.47      11.4  T
   5    -26.7834132 -0.249181E-07  0.958E-04    2.47      25.3  T
   6    -26.7834132 -0.658857E-08  0.405E-04    2.47      59.9  T
     SCC iter.                  ...        0 min,  2.528 sec
     gradient                   ...        0 min,  0.732 sec
 * total energy  :   -26.3682318 Eh     change       -0.1709457E-03 Eh
   gradient norm :     0.0009543 Eh/α   predicted    -0.7407464E-04 ( -56.67%)
   displ. norm   :     0.2229929 α      lambda       -0.9751032E-04
   maximum displ.:     0.1822986 α      in ANC's #7, #5, #3, ...

........................................................................
.............................. CYCLE   10 ..............................
........................................................................

 iter      E             dE          RMSdq      gap      omega  full diag
   1    -26.7833737 -0.267834E+02  0.455E-02    2.47       0.0  T
   2    -26.7833741 -0.488902E-06  0.268E-02    2.47       1.0  T
   3    -26.7833724  0.171154E-05  0.118E-02    2.47       2.1  T
   4    -26.7833744 -0.199490E-05  0.215E-03    2.47      11.3  T
   5    -26.7833745 -0.267430E-07  0.111E-03    2.47      21.9  T
   6    -26.7833745 -0.697191E-08  0.432E-04    2.47      56.1  T
   7    -26.7833745 -0.841649E-09  0.100E-04    2.47     241.9  T
     SCC iter.                  ...        0 min,  3.561 sec
     gradient                   ...        0 min,  1.047 sec
 * total energy  :   -26.3683082 Eh     change       -0.7636733E-04 Eh
   gradient norm :     0.0017237 Eh/α   predicted    -0.4983265E-04 ( -34.75%)
   displ. norm   :     0.1490549 α      lambda       -0.6676896E-04
   maximum displ.:     0.1200437 α      in ANC's #7, #3, #5, ...

........................................................................
.............................. CYCLE   11 ..............................
........................................................................

 iter      E             dE          RMSdq      gap      omega  full diag
   1    -26.7835323 -0.267835E+02  0.343E-02    2.47       0.0  T
   2    -26.7835326 -0.341588E-06  0.200E-02    2.47       1.2  T
   3    -26.7835300  0.258389E-05  0.156E-02    2.46       1.6  T
   4    -26.7835333 -0.326902E-05  0.188E-03    2.47      12.9  T
   5    -26.7835333 -0.139833E-08  0.842E-04    2.47      28.8  T
   6    -26.7835333 -0.374282E-08  0.238E-04    2.47     101.8  T
     SCC iter.                  ...        0 min,  3.188 sec
     gradient                   ...        0 min,  0.672 sec
 * total energy  :   -26.3683794 Eh     change       -0.7119219E-04 Eh
   gradient norm :     0.0011635 Eh/α   predicted    -0.3371514E-04 ( -52.64%)
   displ. norm   :     0.1605922 α      lambda       -0.3736392E-04
   maximum displ.:     0.1279044 α      in ANC's #7, #3, #5, ...

........................................................................
.............................. CYCLE   12 ..............................
........................................................................

 iter      E             dE          RMSdq      gap      omega  full diag
   1    -26.7833779 -0.267834E+02  0.289E-02    2.46       0.0  T
   2    -26.7833783 -0.385901E-06  0.159E-02    2.47       1.5  T
   3    -26.7833766  0.170065E-05  0.134E-02    2.46       1.8  T
   4    -26.7833790 -0.237244E-05  0.142E-03    2.46      17.1  T
   5    -26.7833790 -0.698719E-09  0.670E-04    2.46      36.2  T
   6    -26.7833790 -0.167787E-08  0.207E-04    2.46     117.0  T
     SCC iter.                  ...        0 min,  3.235 sec
     gradient                   ...        0 min,  0.739 sec
 * total energy  :   -26.3684158 Eh     change       -0.3641314E-04 Eh
   gradient norm :     0.0013521 Eh/α   predicted    -0.1889431E-04 ( -48.11%)
   displ. norm   :     0.1421793 α      lambda       -0.2423101E-04
   maximum displ.:     0.1096119 α      in ANC's #7, #3, #5, ...

   *** GEOMETRY OPTIMIZATION CONVERGED AFTER 12 ITERATIONS ***

------------------------------------------------------------------------
 total energy gain   :        -0.0212845 Eh      -13.3562 kcal/mol
 total RMSD          :         0.7629437 a0        0.4037 Å
 total power (kW/mol):        -4.6568667 (step)   -1.0899 (real)
------------------------------------------------------------------------

 ANCopt (total)                0 d,  0 h,  0 min, 51.272 sec
 optimizer setup                ...        0 min,  0.000 sec (  0.000%)
 model hessian                  ...        0 min,  0.002 sec (  0.004%)
 ANC generation                 ...        0 min,  0.000 sec (  0.001%)
 coordinate transformation      ...        0 min,  0.000 sec (  0.000%)
 single point calculation       ...        0 min, 50.478 sec ( 98.451%)
 optimization log               ...        0 min,  0.001 sec (  0.002%)
 hessian update                 ...        0 min,  0.788 sec (  1.537%)
 rational function              ...        0 min,  0.002 sec (  0.004%)

================
 final structure:
================
17
 xtb: 6.7.1 (edcfbbe)
C           -2.23191372305881        0.14389401598315       -0.00192741691333
C           -0.75818636050408        0.33002432014368        0.00410970690250
C            0.02831327217522        1.46087086681911       -0.00307548850958
C            1.34840867932804        0.98568358825734        0.00483000898626
N            1.37817245552038       -0.33084980800667        0.02258472495497
N            0.10189739303262       -0.71433227350034        0.01803499252828
H           -2.72608528208215        1.11085511592762        0.00816395211698
H           -2.55296285577523       -0.42052205335453        0.87389840625704
H           -2.54844397490187       -0.39894530502870       -0.89308799605933
H           -0.29844331589009        2.48003486407506       -0.01407534430945
H            2.26012344447837        1.54853374559512        0.00343499661075
H           -0.12488408322575       -1.69519823660945        0.02817651251437
C           -0.67766030229213       -4.36843831759296       -0.04371894280248
N           -0.95356416969198       -5.59195562707904       -0.03265243267539
N           -1.20479268596667       -6.69205004838585       -0.02077893015292
H           -1.47986754696820       -3.65621116187796       -0.05596523499057
H            0.35040042582228       -4.06120970536562       -0.03712416445807

 Bond Distances (Angstroems)
 ---------------------------
C1-C2=1.4854         C1-H7=1.0860         C1-H8=1.0903         C1-H9=1.0904         C2-C1=1.4854         C2-C3=1.3775         
C2-N6=1.3530         C3-C2=1.3775         C3-C4=1.4030         C3-H10=1.0703        C4-C3=1.4030         C4-N5=1.3170         
C4-H11=1.0715        N5-C4=1.3170         N5-N6=1.3327         N6-C2=1.3530         N6-N5=1.3327         N6-H12=1.0068        
H7-C1=1.0860         H8-C1=1.0903         H9-C1=1.0904         H10-C3=1.0703        H11-C4=1.0715        H12-N6=1.0068        
C13-N14=1.2543       C13-H16=1.0728       C13-H17=1.0730       N14-C13=1.2543       N14-N15=1.1285       N15-N14=1.1285       
H16-C13=1.0728       H17-C13=1.0730       
 C  H  Rav=1.0792 sigma=0.0086  Rmin=1.0703  Rmax=1.0904     7
 C  C  Rav=1.4220 sigma=0.0461  Rmin=1.3775  Rmax=1.4854     3
 N  H  Rav=1.0068 sigma=0.0000  Rmin=1.0068  Rmax=1.0068     1
 N  C  Rav=1.3081 sigma=0.0408  Rmin=1.2543  Rmax=1.3530     3
 N  N  Rav=1.2306 sigma=0.1021  Rmin=1.1285  Rmax=1.3327     2

 selected bond angles (degree)
 --------------------
H7-C1-C2=109.87                H8-C1-C2=110.72                H8-C1-H7=108.63                H9-C1-C2=110.71                
H9-C1-H7=108.59                H9-C1-H8=108.26                C3-C2-C1=132.01                N6-C2-C1=122.28                
N6-C2-C3=105.71                C4-C3-C2=105.02                H10-C3-C2=127.41               H10-C3-C4=127.57               
N5-C4-C3=111.09                H11-C4-C3=128.51               H11-C4-N5=120.39               N6-N5-C4=105.42                
N5-N6-C2=112.75                H12-N6-C2=127.51               H12-N6-N5=119.74               

 selected dihedral angles (degree)
 ---------------------------------
C3-C2-C1-H7=358.74            C3-C2-C1-H8=238.75            C3-C2-C1-H9=118.67            N6-C2-C1-H7=178.80            
N6-C2-C1-H8= 58.81            N6-C2-C1-H9=298.73            C4-C3-C2-C1=180.17            C4-C3-C2-N6=  0.11            
H10-C3-C2-C1=  0.07           H10-C3-C2-N6=180.02           N5-C4-C3-C2=359.69            N5-C4-C3-H10=179.79           
H11-C4-C3-C2=180.04           H11-C4-C3-H10=  0.14          N6-N5-C4-C3=  0.37            N6-N5-C4-H11=180.05           
N5-N6-C2-C1=180.06            N5-N6-C2-C3=  0.11            H12-N6-C2-C1=359.82           H12-N6-C2-C3=179.87           
C2-N6-N5-C4=359.70            H12-N6-N5-C4=179.92           

 CMA Distance (Angstroems)
 ---------------------------
R(CMA):  5.8738
           -------------------------------------------------
          |                Final Singlepoint                |
           -------------------------------------------------

          ...................................................
          :                      SETUP                      :
          :.................................................:
          :  # basis functions                  44          :
          :  # atomic orbitals                  44          :
          :  # shells                           26          :
          :  # electrons                        48          :
          :  max. iterations                   250          :
          :  Hamiltonian                  GFN2-xTB          :
          :  restarted?                      false          :
          :  GBSA solvation                  false          :
          :  PC potential                    false          :
          :  electronic temp.          300.0000000     K    :
          :  accuracy                    1.0000000          :
          :  -> integral cutoff          0.2500000E+02      :
          :  -> integral neglect         0.1000000E-07      :
          :  -> SCF convergence          0.1000000E-05 Eh   :
          :  -> wf. convergence          0.1000000E-03 e    :
          :  Broyden damping             0.4000000          :
          :  net charge                          0          :
          :  unpaired electrons                  0          :
          ...................................................

 iter      E             dE          RMSdq      gap      omega  full diag
   1    -26.7833790 -0.267834E+02  0.805E-05    2.46       0.0  T
   2    -26.7833790 -0.125269E-10  0.460E-05    2.46     527.7  T
   3    -26.7833790 -0.499867E-11  0.295E-05    2.46     823.5  T

   *** convergence criteria satisfied after 3 iterations ***

         #    Occupation            Energy/Eh            Energy/eV
      -------------------------------------------------------------
         1        2.0000           -0.7057481             -19.2044
       ...           ...                  ...                  ...
        18        2.0000           -0.4725949             -12.8600
        19        2.0000           -0.4692628             -12.7693
        20        2.0000           -0.4550003             -12.3812
        21        2.0000           -0.4048415             -11.0163
        22        2.0000           -0.3931223             -10.6974
        23        2.0000           -0.3887546             -10.5786
        24        2.0000           -0.3760061             -10.2316 (HOMO)
        25                         -0.2854427              -7.7673 (LUMO)
        26                         -0.2095797              -5.7030
        27                         -0.2023270              -5.5056
        28                         -0.1547835              -4.2119
        29                          0.0060986               0.1660
       ...                                ...                  ...
        44                          1.0519991              28.6264
      -------------------------------------------------------------
                  HL-Gap            0.0905634 Eh            2.4644 eV
             Fermi-level           -0.3307244 Eh           -8.9995 eV

 SCC (total)                   0 d,  0 h,  0 min,  4.718 sec
 SCC setup                      ...        0 min,  0.090 sec (  1.912%)
 Dispersion                     ...        0 min,  0.255 sec (  5.395%)
 classical contributions        ...        0 min,  0.106 sec (  2.254%)
 integral evaluation            ...        0 min,  0.260 sec (  5.501%)
 iterations                     ...        0 min,  3.302 sec ( 69.985%)
 molecular gradient             ...        0 min,  0.705 sec ( 14.949%)
 printout                       ...        0 min,  0.000 sec (  0.003%)

         :::::::::::::::::::::::::::::::::::::::::::::::::::::
         ::                     SUMMARY                     ::
         :::::::::::::::::::::::::::::::::::::::::::::::::::::
         :: total energy             -26.368415803425 Eh    ::
         :: gradient norm              0.001353191430 Eh/a0 ::
         :: HOMO-LUMO gap              2.464356547653 eV    ::
         ::.................................................::
         :: SCC energy               -26.783421321170 Eh    ::
         :: -> isotropic ES            0.017271084432 Eh    ::
         :: -> anisotropic ES          0.004105350846 Eh    ::
         :: -> anisotropic XC          0.037694233596 Eh    ::
         :: -> dispersion             -0.010031783380 Eh    ::
         :: repulsion energy           0.415005517745 Eh    ::
         :: add. restraining           0.000000000000 Eh    ::
         :: total charge               0.000000000000 e     ::
         :::::::::::::::::::::::::::::::::::::::::::::::::::::

           -------------------------------------------------
          |                Property Printout                |
           -------------------------------------------------

    * Orbital Energies and Occupations

         #    Occupation            Energy/Eh            Energy/eV
      -------------------------------------------------------------
         1        2.0000           -0.7057481             -19.2044
       ...           ...                  ...                  ...
        12        2.0000           -0.5407303             -14.7140
        13        2.0000           -0.5350436             -14.5593
        14        2.0000           -0.4971904             -13.5292
        15        2.0000           -0.4938194             -13.4375
        16        2.0000           -0.4882002             -13.2846
        17        2.0000           -0.4858773             -13.2214
        18        2.0000           -0.4725949             -12.8600
        19        2.0000           -0.4692628             -12.7693
        20        2.0000           -0.4550003             -12.3812
        21        2.0000           -0.4048415             -11.0163
        22        2.0000           -0.3931223             -10.6974
        23        2.0000           -0.3887546             -10.5786
        24        2.0000           -0.3760061             -10.2316 (HOMO)
        25                         -0.2854427              -7.7673 (LUMO)
        26                         -0.2095797              -5.7030
        27                         -0.2023270              -5.5056
        28                         -0.1547835              -4.2119
        29                          0.0060986               0.1660
        30                          0.0910365               2.4772
        31                          0.1121856               3.0527
        32                          0.1455770               3.9614
        33                          0.1608027               4.3757
        34                          0.1719434               4.6788
        35                          0.2040386               5.5522
       ...                                ...                  ...
        44                          1.0519991              28.6264
      -------------------------------------------------------------
                  HL-Gap            0.0905634 Eh            2.4644 eV
             Fermi-level           -0.3307244 Eh           -8.9995 eV

     #   Z          covCN         q      C6AA      α(0)
     1   6 C        3.754    -0.113    22.713     6.796
     2   6 C        3.055     0.039    27.069     8.532
     3   6 C        3.031    -0.082    30.006     8.985
     4   6 C        3.124     0.028    27.205     8.541
     5   7 N        1.991    -0.227    26.771     7.674
     6   7 N        3.020    -0.009    21.424     6.874
     7   1 H        0.925     0.055     2.256     2.349
     8   1 H        0.924     0.047     2.361     2.403
     9   1 H        0.924     0.047     2.357     2.401
    10   1 H        0.927     0.024     2.678     2.559
    11   1 H        0.926     0.029     2.600     2.521
    12   1 H        0.860     0.159     1.343     1.815
    13   6 C        2.771    -0.153    31.927     9.254
    14   7 N        1.891     0.215    18.292     6.341
    15   7 N        0.989    -0.203    24.974     7.185
    16   1 H        0.926     0.067     2.116     2.275
    17   1 H        0.926     0.077     2.010     2.217

 Mol. C6AA /au·bohr⁶  :       3267.668057
 Mol. C8AA /au·bohr⁸  :      73960.367353
 Mol. α(0) /au        :         88.722812


Wiberg/Mayer (AO) data.
largest (>0.10) Wiberg bond orders for each atom

 ---------------------------------------------------------------------------
     #   Z sym  total        # sym  WBO       # sym  WBO       # sym  WBO
 ---------------------------------------------------------------------------
     1   6 C    3.996 --     2 C    1.028     7 H    0.984     8 H    0.973
                             9 H    0.972
     2   6 C    3.959 --     3 C    1.491     6 N    1.259     1 C    1.028
                             5 N    0.159
     3   6 C    3.977 --     2 C    1.491     4 C    1.360    10 H    0.975
     4   6 C    3.980 --     5 N    1.526     3 C    1.360    11 H    0.970
     5   7 N    2.965 --     4 C    1.526     6 N    1.203     2 C    0.159
     6   7 N    3.608 --     2 C    1.259     5 N    1.203    12 H    0.939
     7   1 H    0.997 --     1 C    0.984
     8   1 H    0.998 --     1 C    0.973
     9   1 H    0.998 --     1 C    0.972
    10   1 H    0.999 --     3 C    0.975
    11   1 H    0.999 --     4 C    0.970
    12   1 H    0.975 --     6 N    0.939
    13   6 C    3.866 --    14 N    1.533    16 H    0.928    17 H    0.926
                            15 N    0.475
    14   7 N    3.803 --    15 N    2.256    13 C    1.533
    15   7 N    2.848 --    14 N    2.256    13 C    0.475
    16   1 H    0.995 --    13 C    0.928
    17   1 H    0.994 --    13 C    0.926
Note: The following floating-point exceptions are signalling: IEEE_UNDERFLOW_FLAG IEEE_DENORMAL
normal termination of xtb
 ---------------------------------------------------------------------------

Topologies differ in total number of bonds
Writing topology from bond orders to xtbtopo.mol

molecular dipole:
                 x           y           z       tot (Debye)
 q only:       -0.639       0.207      -0.007
   full:       -0.908       0.623      -0.013       2.799
molecular quadrupole (traceless):
                xx          xy          yy          xz          yz          zz
 q only:        5.245      -2.546      -9.599      -0.024       0.007       4.353
  q+dip:        8.005      -3.394     -14.430      -0.038      -0.001       6.425
   full:        8.237      -3.650     -16.142      -0.039       0.030       7.904

           -------------------------------------------------
          |                Geometry Summary                 |
           -------------------------------------------------

      molecular mass/u    :      124.1440183
   center of mass at/Å    :       -0.3559924      -1.6853187      -0.0059973
  moments of inertia/u·Å² :        0.1404119E+03   0.1061780E+04   0.1198996E+04
rotational constants/cm⁻¹ :        0.1200585E+00   0.1587676E-01   0.1405979E-01

 * 16 selected distances

     #   Z          #   Z                                           value/Å
     1   6 C        2   6 C                                       1.4854473 (max)
     2   6 C        3   6 C                                       1.3774787
     3   6 C        4   6 C                                       1.4030387
     4   6 C        5   7 N                                       1.3169896
     2   6 C        6   7 N                                       1.3530037
     5   7 N        6   7 N                                       1.3326507
     1   6 C        7   1 H                                       1.0859656
     1   6 C        8   1 H                                       1.0902794
     1   6 C        9   1 H                                       1.0904280
     3   6 C       10   1 H                                       1.0703207
     4   6 C       11   1 H                                       1.0714599
     6   7 N       12   1 H                                       1.0067924 (min)
    13   6 C       14   7 N                                       1.2542888
    14   7 N       15   7 N                                       1.1284789
    13   6 C       16   1 H                                       1.0728253
    13   6 C       17   1 H                                       1.0730061

 * 5 distinct bonds (by element types)

   Z      Z             #   av. dist./Å        max./Å        min./Å
   1 H    6 C           7     1.0791836     1.0904280     1.0703207
   6 C    6 C           3     1.4219882     1.4854473     1.3774787
   1 H    7 N           1     1.0067924     1.0067924     1.0067924
   6 C    7 N           3     1.3080940     1.3530037     1.2542888
   7 N    7 N           2     1.2305648     1.3326507     1.1284789


optimized geometry written to: xtbopt.xyz


           -------------------------------------------------
          | TOTAL ENERGY              -26.368415803425 Eh   |
          | GRADIENT NORM               0.001353191430 Eh/α |
          | HOMO-LUMO GAP               2.464356547653 eV   |
           -------------------------------------------------

------------------------------------------------------------------------
 * finished run on 2026/08/20 at 02:33:09.273     
------------------------------------------------------------------------
 total:
 * wall-time:     0 d,  0 h,  1 min,  5.641 sec
 *  cpu-time:     0 d,  0 h,  1 min, 46.310 sec
 * ratio c/w:     1.620 speedup
 SCF:
 * wall-time:     0 d,  0 h,  0 min,  8.947 sec
 *  cpu-time:     0 d,  0 h,  0 min, 13.305 sec
 * ratio c/w:     1.487 speedup
 ANC optimizer:
 * wall-time:     0 d,  0 h,  0 min, 55.992 sec
 *  cpu-time:     0 d,  0 h,  1 min, 31.960 sec
 * ratio c/w:     1.642 speedup

