17
 xtb: 6.7.1 (edcfbbe)
C           -2.03577280351826       -0.01700780582512       -0.00090082248520
C           -0.60578525360373        0.38308294137177        0.00621780617964
C            0.00690550875273        1.61623173726403        0.01490904761422
C            1.38225744356889        1.33586965842874        0.02239334934293
N            1.60055852470015        0.03539280819152        0.01927986369055
N            0.39338784831763       -0.52748207807460        0.00883163161002
H           -2.66709746834760        0.82855545161979       -0.01658948551776
H           -2.25145274312348       -0.62830454584849        0.89610414709267
H           -2.24152516910293       -0.65992529507454       -0.87263141202793
H           -0.49610889377297        2.56456469848983        0.00480386373222
H            2.19107109625871        2.04656614890549        0.01640151173794
H            0.34272789188304       -1.52706972399238        0.00942278571582
C           -0.94574750443782       -4.21770538778802       -0.11201623872661
N           -1.33890146849307       -5.40760829528254       -0.02629138272889
N           -1.69164073225103       -6.47856155089728        0.06151637729207
H           -1.66216735160902       -3.41960896066214       -0.06149142076029
H            0.10835077055998       -4.02781978091636       -0.08283228934714
