      -----------------------------------------------------------      
     |                   =====================                   |     
     |                           x T B                           |     
     |                   =====================                   |     
     |                         S. Grimme                         |     
     |          Mulliken Center for Theoretical Chemistry        |     
     |                    University of Bonn                     |     
      -----------------------------------------------------------      

   * xtb version 6.7.1 (edcfbbe) compiled by 'conda@3ef47c1a292c' on 2024-11-25

   xtb is free software: you can redistribute it and/or modify it under
   the terms of the GNU Lesser General Public License as published by
   the Free Software Foundation, either version 3 of the License, or
   (at your option) any later version.
   
   xtb is distributed in the hope that it will be useful,
   but WITHOUT ANY WARRANTY; without even the implied warranty of
   MERCHANTABILITY or FITNESS FOR A PARTICULAR PURPOSE.  See the
   GNU Lesser General Public License for more details.
   
   Cite this work as:
   * C. Bannwarth, E. Caldeweyher, S. Ehlert, A. Hansen, P. Pracht,
     J. Seibert, S. Spicher, S. Grimme, WIREs Comput. Mol. Sci., 2020, 11,
     e01493. DOI: 10.1002/wcms.1493
   
   for GFN2-xTB:
   * C. Bannwarth, S. Ehlert and S. Grimme., J. Chem. Theory Comput., 2019,
     15, 1652-1671. DOI: 10.1021/acs.jctc.8b01176
   for GFN1-xTB:
   * S. Grimme, C. Bannwarth, P. Shushkov, J. Chem. Theory Comput., 2017,
     13, 1989-2009. DOI: 10.1021/acs.jctc.7b00118
   for GFN0-xTB:
   * P. Pracht, E. Caldeweyher, S. Ehlert, S. Grimme, ChemRxiv, 2019, preprint.
     DOI: 10.26434/chemrxiv.8326202.v1
   for GFN-FF:
   * S. Spicher and S. Grimme, Angew. Chem. Int. Ed., 2020, 59, 15665-15673.
     DOI: 10.1002/anie.202004239
   
   for ALPB and GBSA implicit solvation:
   * S. Ehlert, M. Stahn, S. Spicher, S. Grimme, J. Chem. Theory Comput.,
     2021, 17, 4250-4261. DOI: 10.1021/acs.jctc.1c00471
   
   for ddCOSMO and CPCM-X implicit solvation:
   * M. Stahn, S. Ehlert, S. Grimme, J. Phys. Chem. A,
     2023, XX, XXXX-XXXX. DOI: 10.1021/acs.jpca.3c04382
   
   for DFT-D4:
   * E. Caldeweyher, C. Bannwarth and S. Grimme, J. Chem. Phys., 2017,
     147, 034112. DOI: 10.1063/1.4993215
   * E. Caldeweyher, S. Ehlert, A. Hansen, H. Neugebauer, S. Spicher,
     C. Bannwarth and S. Grimme, J. Chem. Phys., 2019, 150, 154122.
     DOI: 10.1063/1.5090222
   * E. Caldeweyher, J.-M. Mewes, S. Ehlert and S. Grimme, Phys. Chem. Chem. Phys.
     2020, 22, 8499-8512. DOI: 10.1039/D0CP00502A
   
   for sTDA-xTB:
   * S. Grimme and C. Bannwarth, J. Chem. Phys., 2016, 145, 054103.
     DOI: 10.1063/1.4959605
   
   in the mass-spec context:
   * V. Asgeirsson, C. Bauer and S. Grimme, Chem. Sci., 2017, 8, 4879.
     DOI: 10.1039/c7sc00601b
   * J. Koopman and S. Grimme, ACS Omega 2019, 4, 12, 15120-15133.
     DOI: 10.1021/acsomega.9b02011
   
   for metadynamics refer to:
   * S. Grimme, J. Chem. Theory Comput., 2019, 155, 2847-2862
     DOI: 10.1021/acs.jctc.9b00143
   
   for SPH calculations refer to:
   * S. Spicher and S. Grimme, J. Chem. Theory Comput., 2021, 17, 1701-1714
     DOI: 10.1021/acs.jctc.0c01306
   
   for ONIOM refer to:
   * C. Plett, A. Katbashev, S. Ehlert, S. Grimme, M. Bursch,
     Phys. Chem. Chem. Phys., 2023, 25, 17860-17868. DOI: 10.1039/D3CP02178E
   
   for DIPRO refer to:
   * J. Kohn, N. Gildemeister, S. Grimme, D. Fazzi, A. Hansen,
     J. Chem. Phys., 2023, just accepted.
   
   for PTB refer to:
   * S. Grimme, M. Mueller, A. Hansen, J. Chem. Phys., 2023, 158, 124111.
     DOI: 10.1063/5.0137838
   
   with help from (in alphabetical order)
   P. Atkinson, C. Bannwarth, F. Bohle, G. Brandenburg, E. Caldeweyher
   M. Checinski, S. Dohm, S. Ehlert, S. Ehrlich, I. Gerasimov, C. Hölzer
   A. Katbashev, J. Kohn, J. Koopman, C. Lavigne, S. Lehtola, F. März, M. Müller,
   F. Musil, H. Neugebauer, J. Pisarek, C. Plett, P. Pracht, F. Pultar,
   J. Seibert, P. Shushkov, S. Spicher, M. Stahn, M. Steiner, T. Strunk,
   J. Stückrath, T. Rose, and J. Unsleber
   
 * started run on 2026/08/20 at 02:35:38.066     
   ID    Z sym.   atoms
    1    6 C      1
    2    7 N      2, 3
    3    1 H      4, 5

           -------------------------------------------------
          |                Calculation Setup                |
           -------------------------------------------------

          program call               : xtb /project/shared/el_agente_benchmark/estructural_revision/Estructural_Case7__gpt-5.4__max__repeat_3__cf14d77d/ts-study/calculations/fragments/diazomethane.xyz --gfn 2 --opt loose
          coordinate file            : /project/shared/el_agente_benchmark/estructural_revision/Estructural_Case7__gpt-5.4__max__repeat_3__cf14d77d/ts-study/calculations/fragments/diazomethane.xyz
          omp threads                :                    16


           -------------------------------------------------
          |                 G F N 2 - x T B                 |
           -------------------------------------------------

        Reference                      10.1021/acs.jctc.8b01176
      * Hamiltonian:
        H0-scaling (s, p, d)           1.850000    2.230000    2.230000
        zeta-weighting                 0.500000
      * Dispersion:
        s8                             2.700000
        a1                             0.520000
        a2                             5.000000
        s9                             5.000000
      * Repulsion:
        kExp                           1.500000    1.000000
        rExp                           1.000000
      * Coulomb:
        alpha                          2.000000
        third order                    shell-resolved
        anisotropic                    true
        a3                             3.000000
        a5                             4.000000
        cn-shift                       1.200000
        cn-exp                         4.000000
        max-rad                        5.000000


          ...................................................
          :                      SETUP                      :
          :.................................................:
          :  # basis functions                  14          :
          :  # atomic orbitals                  14          :
          :  # shells                            8          :
          :  # electrons                        16          :
          :  max. iterations                   250          :
          :  Hamiltonian                  GFN2-xTB          :
          :  restarted?                      false          :
          :  GBSA solvation                  false          :
          :  PC potential                    false          :
          :  electronic temp.          300.0000000     K    :
          :  accuracy                    1.0000000          :
          :  -> integral cutoff          0.2500000E+02      :
          :  -> integral neglect         0.1000000E-07      :
          :  -> SCF convergence          0.1000000E-05 Eh   :
          :  -> wf. convergence          0.1000000E-03 e    :
          :  Broyden damping             0.4000000          :
          :  net charge                          0          :
          :  unpaired electrons                  0          :
          ...................................................

 iter      E             dE          RMSdq      gap      omega  full diag
   1     -8.9347340 -0.893473E+01  0.718E+00    4.38       0.0  T
   2     -8.9857972 -0.510631E-01  0.460E+00    2.05       1.0  T
   3     -9.0170656 -0.312684E-01  0.279E+00    2.71       1.0  T
   4     -9.0279666 -0.109011E-01  0.157E+00    2.13       1.0  T
   5     -9.0342809 -0.631426E-02  0.392E-01    2.09       1.0  T
   6     -9.0345469 -0.265950E-03  0.139E-01    2.15       1.0  T
   7     -9.0346329 -0.860627E-04  0.541E-02    2.12       1.0  T
   8     -9.0346407 -0.778199E-05  0.500E-03    2.12       9.0  T
   9     -9.0346407 -0.149331E-07  0.417E-03    2.12      10.7  T
  10     -9.0346408 -0.722742E-07  0.203E-04    2.12     220.0  T
  11     -9.0346408 -0.211120E-10  0.143E-04    2.12     313.2  T

   *** convergence criteria satisfied after 11 iterations ***

         #    Occupation            Energy/Eh            Energy/eV
      -------------------------------------------------------------
         1        2.0000           -0.6931764             -18.8623
         2        2.0000           -0.6387775             -17.3820
         3        2.0000           -0.5705782             -15.5262
         4        2.0000           -0.5522973             -15.0288
         5        2.0000           -0.5458663             -14.8538
         6        2.0000           -0.4773368             -12.9890
         7        2.0000           -0.4671765             -12.7125
         8        2.0000           -0.3654376              -9.9441 (HOMO)
         9                         -0.2874455              -7.8218 (LUMO)
        10                         -0.2140170              -5.8237
        11                          0.0504145               1.3718
        12                          0.1976470               5.3782
        13                          0.2674978               7.2790
        14                          0.9139973              24.8711
      -------------------------------------------------------------
                  HL-Gap            0.0779922 Eh            2.1223 eV
             Fermi-level           -0.3264416 Eh           -8.8829 eV

 SCC (total)                   0 d,  0 h,  0 min,  2.976 sec
 SCC setup                      ...        0 min,  0.038 sec (  1.286%)
 Dispersion                     ...        0 min,  0.092 sec (  3.082%)
 classical contributions        ...        0 min,  0.046 sec (  1.552%)
 integral evaluation            ...        0 min,  0.148 sec (  4.973%)
 iterations                     ...        0 min,  2.015 sec ( 67.686%)
 molecular gradient             ...        0 min,  0.637 sec ( 21.416%)
 printout                       ...        0 min,  0.000 sec (  0.003%)

         :::::::::::::::::::::::::::::::::::::::::::::::::::::
         ::                     SUMMARY                     ::
         :::::::::::::::::::::::::::::::::::::::::::::::::::::
         :: total energy              -8.910402551701 Eh    ::
         :: gradient norm              0.084572707502 Eh/a0 ::
         :: HOMO-LUMO gap              2.122275069507 eV    ::
         ::.................................................::
         :: SCC energy                -9.034640766038 Eh    ::
         :: -> isotropic ES            0.005089777842 Eh    ::
         :: -> anisotropic ES          0.001341430622 Eh    ::
         :: -> anisotropic XC          0.024459646547 Eh    ::
         :: -> dispersion             -0.001427160857 Eh    ::
         :: repulsion energy           0.124238214337 Eh    ::
         :: add. restraining           0.000000000000 Eh    ::
         :: total charge              -0.000000000000 e     ::
         :::::::::::::::::::::::::::::::::::::::::::::::::::::

      ----------------------------------------------------------- 
     |                   =====================                   |
     |                        A N C O P T                        |
     |                   =====================                   |
     |               Approximate Normal Coordinate               |
     |                Rational Function Optimizer                |
      ----------------------------------------------------------- 
      ----------------------------------------------------------- 
     |                   =====================                   |
     |                        A N C O P T                        |
     |                   =====================                   |
     |               Approximate Normal Coordinate               |
     |                Rational Function Optimizer                |
      ----------------------------------------------------------- 

          ...................................................
          :                      SETUP                      :
          :.................................................:
          :   optimization level             loose          :
          :   max. optcycles                   200          :
          :   ANC micro-cycles                  20          :
          :   degrees of freedom                 9          :
          :.................................................:
          :   RF solver                   davidson          :
          :   write xtbopt.log                true          :
          :   linear?                        false          :
          :   energy convergence         0.5000000E-04 Eh   :
          :   grad. convergence          0.4000000E-02 Eh/α :
          :   maxmium RF displ.          1.0000000          :
          :   Hlow (freq-cutoff)         0.1000000E-01      :
          :   Hmax (freq-cutoff)         5.0000000          :
          :   S6 in model hess.         20.0000000          :
          ...................................................

generating ANC from exact Hessian ...
Using Lindh-Hessian (1995)
 Shifting diagonal of input Hessian by    9.4426972191664349E-003
 Lowest  eigenvalues of input Hessian
    0.000000    0.000000    0.000000    0.000000    0.000000    0.000000
    0.010000    0.110446    0.160729    0.392315    0.617131    0.722549
    1.223419    1.398986    2.823024
 Highest eigenvalues
    0.392315    0.617131    0.722549    1.223419    1.398986    2.823024


........................................................................
.............................. CYCLE    1 ..............................
........................................................................

 iter      E             dE          RMSdq      gap      omega  full diag
   1     -9.0346408 -0.903464E+01  0.299E-06    2.12       0.0  T
   2     -9.0346408 -0.177636E-14  0.264E-06    2.12   16920.9  T
   3     -9.0346408 -0.177636E-13  0.135E-06    2.12   33049.8  T
     SCC iter.                  ...        0 min,  0.487 sec
     gradient                   ...        0 min,  0.485 sec
 * total energy  :    -8.9104026 Eh     change       -0.6745182E-10 Eh
   gradient norm :     0.0845700 Eh/α   predicted     0.0000000E+00 (-100.00%)
   displ. norm   :     0.1614784 α      lambda       -0.1050001E-01
   maximum displ.:     0.1293627 α      in ANC's #4, #3, #7, ...

........................................................................
.............................. CYCLE    2 ..............................
........................................................................

 iter      E             dE          RMSdq      gap      omega  full diag
   1     -9.0660028 -0.906600E+01  0.605E-01    2.40       0.0  T
   2     -9.0660933 -0.904404E-04  0.582E-01    2.46       1.0  T
   3     -9.0670203 -0.926993E-03  0.214E-01    2.40       1.0  T
   4     -9.0669951  0.251383E-04  0.142E-01    2.43       1.0  T
   5     -9.0670367 -0.416129E-04  0.254E-02    2.42       1.8  T
   6     -9.0670377 -0.958665E-06  0.269E-03    2.42      16.6  T
   7     -9.0670377 -0.194619E-08  0.940E-04    2.42      47.6  T
   8     -9.0670377 -0.106185E-08  0.201E-04    2.42     222.5  T
     SCC iter.                  ...        0 min,  1.285 sec
     gradient                   ...        0 min,  0.529 sec
 * total energy  :    -8.9166833 Eh     change       -0.6280790E-02 Eh
   gradient norm :     0.0176166 Eh/α   predicted    -0.5386899E-02 ( -14.23%)
   displ. norm   :     0.0280691 α      lambda       -0.3245829E-03
   maximum displ.:     0.0239641 α      in ANC's #4, #3, #9, ...

........................................................................
.............................. CYCLE    3 ..............................
........................................................................

 iter      E             dE          RMSdq      gap      omega  full diag
   1     -9.0713588 -0.907136E+01  0.137E-01    2.44       0.0  T
   2     -9.0713397  0.190981E-04  0.168E-01    2.47       1.0  T
   3     -9.0714439 -0.104211E-03  0.431E-02    2.45       1.0  T
   4     -9.0714439  0.160577E-07  0.175E-02    2.45       2.6  T
   5     -9.0714445 -0.589177E-06  0.608E-03    2.45       7.3  T
   6     -9.0714446 -0.574129E-07  0.880E-04    2.45      50.8  T
   7     -9.0714446 -0.713367E-09  0.148E-04    2.45     302.5  T
     SCC iter.                  ...        0 min,  1.260 sec
     gradient                   ...        0 min,  0.471 sec
 * total energy  :    -8.9168116 Eh     change       -0.1283028E-03 Eh
   gradient norm :     0.0046365 Eh/α   predicted    -0.1624201E-03 (  26.59%)
   displ. norm   :     0.0049195 α      lambda       -0.1384931E-04
   maximum displ.:     0.0035282 α      in ANC's #4, #3, #9, ...

........................................................................
.............................. CYCLE    4 ..............................
........................................................................

 iter      E             dE          RMSdq      gap      omega  full diag
   1     -9.0707352 -0.907074E+01  0.285E-02    2.45       0.0  T
   2     -9.0707342  0.930851E-06  0.346E-02    2.44       1.3  T
   3     -9.0707389 -0.465558E-05  0.795E-03    2.44       5.6  T
   4     -9.0707389 -0.487395E-09  0.291E-03    2.44      15.4  T
   5     -9.0707389 -0.167444E-07  0.106E-03    2.44      42.1  T
   6     -9.0707389 -0.172108E-08  0.135E-04    2.44     330.6  T
   7     -9.0707389 -0.163443E-10  0.187E-05    2.44    2389.2  T
     SCC iter.                  ...        0 min,  1.216 sec
     gradient                   ...        0 min,  0.396 sec
 * total energy  :    -8.9168184 Eh     change       -0.6770697E-05 Eh
   gradient norm :     0.0000962 Eh/α   predicted    -0.6926279E-05 (   2.30%)
   displ. norm   :     0.0003476 α      lambda       -0.2024925E-07
   maximum displ.:     0.0002971 α      in ANC's #4, #3, #7, ...

   *** GEOMETRY OPTIMIZATION CONVERGED AFTER 4 ITERATIONS ***

------------------------------------------------------------------------
 total energy gain   :        -0.0064159 Eh       -4.0260 kcal/mol
 total RMSD          :         0.0824106 a0        0.0436 Å
 total power (kW/mol):        -4.2112122 (step)   -2.1236 (real)
------------------------------------------------------------------------

 ANCopt (total)                0 d,  0 h,  0 min,  7.932 sec
 optimizer setup                ...        0 min,  0.000 sec (  0.002%)
 model hessian                  ...        0 min,  0.000 sec (  0.001%)
 ANC generation                 ...        0 min,  0.000 sec (  0.001%)
 coordinate transformation      ...        0 min,  0.000 sec (  0.000%)
 single point calculation       ...        0 min,  7.773 sec ( 97.988%)
 optimization log               ...        0 min,  0.000 sec (  0.003%)
 hessian update                 ...        0 min,  0.158 sec (  1.998%)
 rational function              ...        0 min,  0.000 sec (  0.004%)

================
 final structure:
================
5
 xtb: 6.7.1 (edcfbbe)
C            1.11003676298894        0.04717395494201       -0.07669288973185
N            2.36287061720712        0.04717017517758       -0.07669986579530
N            3.49247685132248        0.04716884580172       -0.07670468452897
H            0.57842667763345       -0.82633558338959        0.24557622040197
H            0.57842909084801        0.92068260746828       -0.39896878034585

 Bond Distances (Angstroems)
 ---------------------------
C1-N2=1.2528         C1-H4=1.0721         C1-H5=1.0721         N2-C1=1.2528         N2-N3=1.1296         N3-N2=1.1296         
H4-C1=1.0721         H5-C1=1.0721         
 C  H  Rav=1.0721 sigma=0.0000  Rmin=1.0721  Rmax=1.0721     2
 N  C  Rav=1.2528 sigma=0.0000  Rmin=1.2528  Rmax=1.2528     1
 N  N  Rav=1.1296 sigma=0.0000  Rmin=1.1296  Rmax=1.1296     1

 selected bond angles (degree)
 --------------------
H4-C1-N2=119.73                H5-C1-N2=119.73                H5-C1-H4=120.55                N3-N2-C1=180.00                

 selected dihedral angles (degree)
 ---------------------------------
N3-N2-C1-H4=235.54            N3-N2-C1-H5= 55.54            
           -------------------------------------------------
          |                Final Singlepoint                |
           -------------------------------------------------

          ...................................................
          :                      SETUP                      :
          :.................................................:
          :  # basis functions                  14          :
          :  # atomic orbitals                  14          :
          :  # shells                            8          :
          :  # electrons                        16          :
          :  max. iterations                   250          :
          :  Hamiltonian                  GFN2-xTB          :
          :  restarted?                      false          :
          :  GBSA solvation                  false          :
          :  PC potential                    false          :
          :  electronic temp.          300.0000000     K    :
          :  accuracy                    1.0000000          :
          :  -> integral cutoff          0.2500000E+02      :
          :  -> integral neglect         0.1000000E-07      :
          :  -> SCF convergence          0.1000000E-05 Eh   :
          :  -> wf. convergence          0.1000000E-03 e    :
          :  Broyden damping             0.4000000          :
          :  net charge                          0          :
          :  unpaired electrons                  0          :
          ...................................................

 iter      E             dE          RMSdq      gap      omega  full diag
   1     -9.0707389 -0.907074E+01  0.784E-06    2.44       0.0  T
   2     -9.0707389  0.177636E-14  0.450E-06    2.44    9928.6  T
   3     -9.0707389  0.230926E-13  0.284E-06    2.44   15721.1  T

   *** convergence criteria satisfied after 3 iterations ***

         #    Occupation            Energy/Eh            Energy/eV
      -------------------------------------------------------------
         1        2.0000           -0.6978618             -18.9898
         2        2.0000           -0.6506139             -17.7041
         3        2.0000           -0.5780530             -15.7296
         4        2.0000           -0.5588081             -15.2059
         5        2.0000           -0.5489068             -14.9365
         6        2.0000           -0.4778773             -13.0037
         7        2.0000           -0.4618647             -12.5680
         8        2.0000           -0.3672472              -9.9933 (HOMO)
         9                         -0.2774644              -7.5502 (LUMO)
        10                         -0.1934591              -5.2643
        11                          0.1145664               3.1175
        12                          0.2687257               7.3124
        13                          0.3305767               8.9954
        14                          1.0587315              28.8095
      -------------------------------------------------------------
                  HL-Gap            0.0897828 Eh            2.4431 eV
             Fermi-level           -0.3223558 Eh           -8.7717 eV

 SCC (total)                   0 d,  0 h,  0 min,  1.492 sec
 SCC setup                      ...        0 min,  0.056 sec (  3.761%)
 Dispersion                     ...        0 min,  0.116 sec (  7.777%)
 classical contributions        ...        0 min,  0.051 sec (  3.449%)
 integral evaluation            ...        0 min,  0.181 sec ( 12.127%)
 iterations                     ...        0 min,  0.512 sec ( 34.299%)
 molecular gradient             ...        0 min,  0.575 sec ( 38.580%)
 printout                       ...        0 min,  0.000 sec (  0.005%)

         :::::::::::::::::::::::::::::::::::::::::::::::::::::
         ::                     SUMMARY                     ::
         :::::::::::::::::::::::::::::::::::::::::::::::::::::
         :: total energy              -8.916818415797 Eh    ::
         :: gradient norm              0.000096208578 Eh/a0 ::
         :: HOMO-LUMO gap              2.443113063561 eV    ::
         ::.................................................::
         :: SCC energy                -9.070738905507 Eh    ::
         :: -> isotropic ES            0.006194384360 Eh    ::
         :: -> anisotropic ES          0.001313889165 Eh    ::
         :: -> anisotropic XC          0.022275626829 Eh    ::
         :: -> dispersion             -0.001431309928 Eh    ::
         :: repulsion energy           0.153920489711 Eh    ::
         :: add. restraining           0.000000000000 Eh    ::
         :: total charge               0.000000000000 e     ::
         :::::::::::::::::::::::::::::::::::::::::::::::::::::

           -------------------------------------------------
          |                Property Printout                |
           -------------------------------------------------

    * Orbital Energies and Occupations

         #    Occupation            Energy/Eh            Energy/eV
      -------------------------------------------------------------
         1        2.0000           -0.6978618             -18.9898
         2        2.0000           -0.6506139             -17.7041
         3        2.0000           -0.5780530             -15.7296
         4        2.0000           -0.5588081             -15.2059
         5        2.0000           -0.5489068             -14.9365
         6        2.0000           -0.4778773             -13.0037
         7        2.0000           -0.4618647             -12.5680
         8        2.0000           -0.3672472              -9.9933 (HOMO)
         9                         -0.2774644              -7.5502 (LUMO)
        10                         -0.1934591              -5.2643
        11                          0.1145664               3.1175
        12                          0.2687257               7.3124
        13                          0.3305767               8.9954
        14                          1.0587315              28.8095
      -------------------------------------------------------------
                  HL-Gap            0.0897828 Eh            2.4431 eV
             Fermi-level           -0.3223558 Eh           -8.7717 eV

     #   Z          covCN         q      C6AA      α(0)
     1   6 C        2.771    -0.150    31.839     9.241
     2   7 N        1.891     0.213    18.312     6.344
     3   7 N        0.989    -0.212    25.175     7.214
     4   1 H        0.926     0.074     2.041     2.234
     5   1 H        0.926     0.074     2.041     2.234

 Mol. C6AA /au·bohr⁶  :        315.820629
 Mol. C8AA /au·bohr⁸  :       7027.557614
 Mol. α(0) /au        :         27.267942


Wiberg/Mayer (AO) data.
largest (>0.10) Wiberg bond orders for each atom

 ---------------------------------------------------------------------------
     #   Z sym  total        # sym  WBO       # sym  WBO       # sym  WBO
 ---------------------------------------------------------------------------
     1   6 C    3.873 --     2 N    1.542     4 H    0.927     5 H    0.927
                             3 N    0.476
     2   7 N    3.803 --     3 N    2.246     1 C    1.542
     3   7 N    2.842 --     2 N    2.246     1 C    0.476
     4   1 H    0.995 --     1 C    0.927
     5   1 H    0.995 --     1 C    0.927
 ---------------------------------------------------------------------------

Topologies differ in total number of bonds
Note: The following floating-point exceptions are signalling: IEEE_DENORMAL
normal termination of xtb
Writing topology from bond orders to xtbtopo.mol

molecular dipole:
                 x           y           z       tot (Debye)
 q only:       -0.596       0.000       0.000
   full:       -0.946       0.000      -0.000       2.404
molecular quadrupole (traceless):
                xx          xy          yy          xz          yz          zz
 q only:       -5.675      -0.080       3.099       0.130      -0.223       2.576
  q+dip:       -9.216      -0.126       5.460       0.206      -0.727       3.756
   full:      -10.156      -0.126       5.994       0.206      -0.783       4.161

           -------------------------------------------------
          |                Geometry Summary                 |
           -------------------------------------------------

      molecular mass/u    :       42.0400238
   center of mass at/Å    :        2.2957295       0.0471710      -0.0766993
  moments of inertia/u·Å² :        0.1747523E+01   0.4295420E+02   0.4470172E+02
rotational constants/cm⁻¹ :        0.9646587E+01   0.3924560E+00   0.3771137E+00

 * 4 selected distances

     #   Z          #   Z                                           value/Å
     1   6 C        2   7 N                                       1.2528340 (max)
     2   7 N        3   7 N                                       1.1296063
     1   6 C        4   1 H                                       1.0721408 (min)
     1   6 C        5   1 H                                       1.0721409

 * 3 distinct bonds (by element types)

   Z      Z             #   av. dist./Å        max./Å        min./Å
   1 H    6 C           2     1.0721408     1.0721409     1.0721408
   6 C    7 N           1     1.2528340     1.2528340     1.2528340
   7 N    7 N           1     1.1296063     1.1296063     1.1296063


optimized geometry written to: xtbopt.xyz


           -------------------------------------------------
          | TOTAL ENERGY               -8.916818415797 Eh   |
          | GRADIENT NORM               0.000096208578 Eh/α |
          | HOMO-LUMO GAP               2.443113063561 eV   |
           -------------------------------------------------

------------------------------------------------------------------------
 * finished run on 2026/08/20 at 02:35:50.961     
------------------------------------------------------------------------
 total:
 * wall-time:     0 d,  0 h,  0 min, 12.895 sec
 *  cpu-time:     0 d,  0 h,  0 min, 27.861 sec
 * ratio c/w:     2.161 speedup
 SCF:
 * wall-time:     0 d,  0 h,  0 min,  2.977 sec
 *  cpu-time:     0 d,  0 h,  0 min,  6.034 sec
 * ratio c/w:     2.027 speedup
 ANC optimizer:
 * wall-time:     0 d,  0 h,  0 min,  9.436 sec
 *  cpu-time:     0 d,  0 h,  0 min, 20.671 sec
 * ratio c/w:     2.191 speedup

