17
Properties=species:S:1:pos:R:3 energy:=T -20.624911047642=T gnorm:=T 0.000218558509=T xtb:=T 6.7.1=T (edcfbbe)=T pbc="F F F"
C       -0.99507102      -1.46282566       0.28494533
C        0.18231773      -0.58173006       0.07991984
C        1.53383448      -0.85769521       0.04516673
C        2.14649982       0.38002772      -0.18393437
N        1.24756437       1.33973925      -0.28197069
N        0.06392069       0.75133387      -0.12200913
C       -1.14283180       1.52145364      -0.17008314
H       -0.66615689      -2.48814991       0.42844358
H       -1.66063910      -1.42697048      -0.57819375
H       -1.56359940      -1.15206564       1.16212467
H        2.00623807      -1.81085703       0.16726905
H        3.19029474       0.60378279      -0.27934017
H       -1.68157097       1.45915051       0.77833112
H       -0.86416724       2.55576500      -0.35959716
H       -1.79663549       1.16904122      -0.97107191
S       11.19029474       0.00000000       0.00000000
O       12.65750876       0.00000000       0.00000000
