17
Properties=species:S:1:pos:R:3:forces:R:3:charge:R:1 energy:=T -27.889159613580=T gnorm:=T 0.000542891349=T xtb:=T 6.7.1=T (edcfbbe)=T energy=-757.55460458566 free_energy=-757.55460458566 dipole="-0.5957690561734473 -0.279225988819311 0.7888375275420668" pbc="F F F"
O        0.82838821       2.44603746      -0.41338007       0.00191488      -0.01132035      -0.00559794      -0.41628435
S        0.29610382       2.63384303       0.95613753      -0.00286350      -0.00514756       0.00253735       0.07199199
N        0.67292427      -0.60433232       0.05411489      -0.00015170       0.00042534       0.00285320       0.10518675
C        1.65679046      -0.52603184       1.08975750      -0.00273026      -0.00290572      -0.00094996      -0.06878565
N        0.93889709      -1.22296896      -1.07746179       0.00002247       0.00317654       0.00247911      -0.21051969
C       -0.14238614      -1.11054737      -1.83750783       0.00634961       0.00183987       0.00068032       0.02770259
C       -1.13791967      -0.40094504      -1.17766066       0.00019370       0.00501687       0.00110048      -0.07013437
C       -0.58932505      -0.09000987       0.06988008      -0.00127898      -0.00211316      -0.00193357       0.03331862
C       -1.14417565       0.65442914       1.15687844       0.00481556      -0.00013964       0.00237987      -0.09312531
H        1.31077734      -1.02800758       1.99618280      -0.00348194       0.00147007       0.00214005       0.05737073
H        2.55510383      -1.01768069       0.72322770      -0.00053906       0.00519708       0.00068856       0.08992701
H        1.88060507       0.51772441       1.32128291       0.00442640       0.00529696      -0.00055358       0.08204251
H       -0.15749672      -1.53964060      -2.81887030      -0.00258305       0.00196173      -0.00555861       0.03917648
H       -2.11589106      -0.14874686      -1.53265966      -0.00248318       0.00004703       0.00266400       0.03167281
H       -2.22852442       0.70043970       1.15199655       0.00031095       0.00722921       0.00168573       0.07610505
H       -1.08513444       2.10236566       0.88152383      -0.00224801      -0.00620650      -0.00423049       0.17239284
H       -0.73346684       0.47664778       2.13965260       0.00032612      -0.00382778      -0.00038451       0.07196198
