17
Properties=species:S:1:pos:R:3 energy:=T -20.623677805678=T gnorm:=T 0.000176667557=T xtb:=T 6.7.1=T (edcfbbe)=T pbc="F F F"
C        2.42565844      -0.61847552       0.25627029
C        1.05525321      -0.07303061       0.06563817
N       -0.02123682      -0.83051832       0.19614794
N       -1.06922591      -0.04410316      -0.03677672
C       -2.40228999      -0.56744690       0.02419667
C       -0.68906342       1.21818578      -0.31836529
C        0.68388819       1.24414701      -0.26252031
H        2.93997617      -0.08365364       1.05369092
H        3.00903112      -0.50796666      -0.65701264
H        2.36344018      -1.67155492       0.51447848
H       -2.89451854      -0.49019202      -0.94783093
H       -2.33214806      -1.61482551       0.30960545
H       -2.99574236      -0.02846016       0.76553337
H       -1.40417524       1.98740431      -0.53230751
H        1.33115402       2.08049032      -0.43074786
S       11.00903112       0.00000000       0.00000000
O       12.47624514       0.00000000       0.00000000
