17
Properties=species:S:1:pos:R:3 energy:=T -27.872989509188=T gnorm:=T 0.000231908789=T xtb:=T 6.7.1=T (edcfbbe)=T pbc="F F F"
C       -2.63680547      -0.09760942      -0.47258222
C       -1.14490809      -0.11134686      -0.25980886
C       -0.41240964      -1.20753663       0.04992843
C        0.95485541      -0.94344457       0.10016928
N        1.26679598       0.28786454      -0.27866367
C        2.59503696       0.76905548      -0.39231516
N        0.31319976       1.08470952      -0.57798389
S       -1.26010976       2.26036166       0.31042200
O       -1.11401040       2.38907328       1.76465800
H       -3.15441642       0.10867836       0.38145675
H       -2.93664996      -0.87123966      -0.90434146
H       -2.76996533       0.73551276      -1.08727204
H       -0.81754979      -2.17626963       0.20842307
H        1.73033282      -1.63482890       0.35967022
H        3.11360179       0.60893057      -0.36274987
H        2.69114561       0.93232490      -0.74003699
H        2.97516634       1.16789425      -0.16164008
