17
Properties=species:S:1:pos:R:3:forces:R:3:charge:R:1 energy:=T -27.819014591331=T gnorm:=T 0.000727466016=T xtb:=T 6.7.1=T (edcfbbe)=T energy=-758.0196136454175 free_energy=-758.0196136454175 dipole="0.25351136691566434 -0.3903969359386724 -0.5904283906613615" pbc="F F F"
C       -2.47203725      -0.24739737      -1.08713176       0.00291369      -0.00176244       0.00673855      -0.11561672
C       -1.32797883      -0.03600949      -0.16303201      -0.00077970       0.00003874      -0.00296597       0.00036488
C       -0.46917556      -0.99961375       0.34802668       0.00092801       0.00482881      -0.00005271      -0.06659133
C        0.80634387      -0.55961885       0.63101523       0.00508888       0.00752218       0.00140689      -0.00014211
N        1.12278715       0.59586577       0.02112146      -0.01749720      -0.00868557      -0.00419415       0.09921872
C        2.46885714       0.99064086      -0.30398291       0.00497296       0.00021242      -0.00378902      -0.06116315
N        0.13739735       1.32682975      -0.48736049       0.01189153       0.00666789       0.00732606      -0.30813600
S       -1.15732499       1.58063416       0.61863688      -0.00611469      -0.01157969      -0.00477103       0.47627867
O       -0.67326899       1.38080875       1.98119173       0.00102129       0.00264398       0.00188535      -0.49736662
H       -3.40960507      -0.27425055      -0.52924150       0.00064404       0.00172622       0.00033396       0.05802598
H       -2.36382231      -1.17585893      -1.64481556       0.00113946       0.00078047      -0.00169271       0.05398462
H       -2.52787594       0.58058457      -1.79099665      -0.00071389       0.00019781      -0.00128676       0.06393255
H       -0.73972750      -2.03862383       0.40653947      -0.00055311       0.00080425       0.00202445       0.04765905
H        1.58218470      -1.12455966       1.11403375      -0.00160725      -0.00298961      -0.00209960       0.04031391
H        3.10275186       0.11356754      -0.42797645      -0.00080591       0.00086051      -0.00068330       0.06075778
H        2.43411941       1.56083242      -1.23175620       0.00257287      -0.00122647       0.00057410       0.08106667
H        2.87968478       1.62829823       0.48306183      -0.00310096      -0.00003949       0.00124589       0.06741310
