17
Properties=species:S:1:pos:R:3 energy:=T -27.889159613580=T gnorm:=T 0.000542891349=T xtb:=T 6.7.1=T (edcfbbe)=T pbc="F F F"
O        1.05897055       2.46010817       1.21187986
S        0.56415842       1.14445417       1.62399207
N        0.92526845      -0.50777932       0.06557475
C        2.10473316      -0.35379273       0.78870509
N        0.93703746      -1.28326635      -0.95906327
C       -0.21341385      -1.31298165      -1.58368379
C       -1.24769726      -0.49373396      -1.07590362
C       -0.87560305       0.20792719      -0.00604239
C       -1.64398701       1.14958583       0.76544453
H        1.94651511      -0.61194806       1.82492690
H        2.82751570      -1.00976075       0.38433961
H        2.45208580       0.66624277       0.70369242
H       -0.30414095      -1.94568183      -2.44674341
H       -2.21844818      -0.44670188      -1.51437277
H       -2.32440009       1.15885436       1.10386817
H       -1.16625016       2.12000671       0.74768623
H       -2.01707398       0.90104338       1.04879412
