      -----------------------------------------------------------      
     |                   =====================                   |     
     |                           x T B                           |     
     |                   =====================                   |     
     |                         S. Grimme                         |     
     |          Mulliken Center for Theoretical Chemistry        |     
     |                    University of Bonn                     |     
      -----------------------------------------------------------      

   * xtb version 6.7.1 (edcfbbe) compiled by 'conda@3ef47c1a292c' on 2024-11-25

   xtb is free software: you can redistribute it and/or modify it under
   the terms of the GNU Lesser General Public License as published by
   the Free Software Foundation, either version 3 of the License, or
   (at your option) any later version.
   
   xtb is distributed in the hope that it will be useful,
   but WITHOUT ANY WARRANTY; without even the implied warranty of
   MERCHANTABILITY or FITNESS FOR A PARTICULAR PURPOSE.  See the
   GNU Lesser General Public License for more details.
   
   Cite this work as:
   * C. Bannwarth, E. Caldeweyher, S. Ehlert, A. Hansen, P. Pracht,
     J. Seibert, S. Spicher, S. Grimme, WIREs Comput. Mol. Sci., 2020, 11,
     e01493. DOI: 10.1002/wcms.1493
   
   for GFN2-xTB:
   * C. Bannwarth, S. Ehlert and S. Grimme., J. Chem. Theory Comput., 2019,
     15, 1652-1671. DOI: 10.1021/acs.jctc.8b01176
   for GFN1-xTB:
   * S. Grimme, C. Bannwarth, P. Shushkov, J. Chem. Theory Comput., 2017,
     13, 1989-2009. DOI: 10.1021/acs.jctc.7b00118
   for GFN0-xTB:
   * P. Pracht, E. Caldeweyher, S. Ehlert, S. Grimme, ChemRxiv, 2019, preprint.
     DOI: 10.26434/chemrxiv.8326202.v1
   for GFN-FF:
   * S. Spicher and S. Grimme, Angew. Chem. Int. Ed., 2020, 59, 15665-15673.
     DOI: 10.1002/anie.202004239
   
   for ALPB and GBSA implicit solvation:
   * S. Ehlert, M. Stahn, S. Spicher, S. Grimme, J. Chem. Theory Comput.,
     2021, 17, 4250-4261. DOI: 10.1021/acs.jctc.1c00471
   
   for ddCOSMO and CPCM-X implicit solvation:
   * M. Stahn, S. Ehlert, S. Grimme, J. Phys. Chem. A,
     2023, XX, XXXX-XXXX. DOI: 10.1021/acs.jpca.3c04382
   
   for DFT-D4:
   * E. Caldeweyher, C. Bannwarth and S. Grimme, J. Chem. Phys., 2017,
     147, 034112. DOI: 10.1063/1.4993215
   * E. Caldeweyher, S. Ehlert, A. Hansen, H. Neugebauer, S. Spicher,
     C. Bannwarth and S. Grimme, J. Chem. Phys., 2019, 150, 154122.
     DOI: 10.1063/1.5090222
   * E. Caldeweyher, J.-M. Mewes, S. Ehlert and S. Grimme, Phys. Chem. Chem. Phys.
     2020, 22, 8499-8512. DOI: 10.1039/D0CP00502A
   
   for sTDA-xTB:
   * S. Grimme and C. Bannwarth, J. Chem. Phys., 2016, 145, 054103.
     DOI: 10.1063/1.4959605
   
   in the mass-spec context:
   * V. Asgeirsson, C. Bauer and S. Grimme, Chem. Sci., 2017, 8, 4879.
     DOI: 10.1039/c7sc00601b
   * J. Koopman and S. Grimme, ACS Omega 2019, 4, 12, 15120-15133.
     DOI: 10.1021/acsomega.9b02011
   
   for metadynamics refer to:
   * S. Grimme, J. Chem. Theory Comput., 2019, 155, 2847-2862
     DOI: 10.1021/acs.jctc.9b00143
   
   for SPH calculations refer to:
   * S. Spicher and S. Grimme, J. Chem. Theory Comput., 2021, 17, 1701-1714
     DOI: 10.1021/acs.jctc.0c01306
   
   for ONIOM refer to:
   * C. Plett, A. Katbashev, S. Ehlert, S. Grimme, M. Bursch,
     Phys. Chem. Chem. Phys., 2023, 25, 17860-17868. DOI: 10.1039/D3CP02178E
   
   for DIPRO refer to:
   * J. Kohn, N. Gildemeister, S. Grimme, D. Fazzi, A. Hansen,
     J. Chem. Phys., 2023, just accepted.
   
   for PTB refer to:
   * S. Grimme, M. Mueller, A. Hansen, J. Chem. Phys., 2023, 158, 124111.
     DOI: 10.1063/5.0137838
   
   with help from (in alphabetical order)
   P. Atkinson, C. Bannwarth, F. Bohle, G. Brandenburg, E. Caldeweyher
   M. Checinski, S. Dohm, S. Ehlert, S. Ehrlich, I. Gerasimov, C. Hölzer
   A. Katbashev, J. Kohn, J. Koopman, C. Lavigne, S. Lehtola, F. März, M. Müller,
   F. Musil, H. Neugebauer, J. Pisarek, C. Plett, P. Pracht, F. Pultar,
   J. Seibert, P. Shushkov, S. Spicher, M. Stahn, M. Steiner, T. Strunk,
   J. Stückrath, T. Rose, and J. Unsleber
   
 * started run on 2026/08/20 at 02:34:28.472     
   ID    Z sym.   atoms
    1    6 C      1-4
    2    7 N      5, 6
    3    1 H      7-12

           -------------------------------------------------
          |                Calculation Setup                |
           -------------------------------------------------

          program call               : xtb /project/shared/el_agente_benchmark/estructural_revision/Estructural_Case7__gpt-5.4__max__repeat_3__cf14d77d/ts-study/calculations/fragments/subA_pyrazole.xyz --gfn 2 --opt loose
          coordinate file            : /project/shared/el_agente_benchmark/estructural_revision/Estructural_Case7__gpt-5.4__max__repeat_3__cf14d77d/ts-study/calculations/fragments/subA_pyrazole.xyz
          omp threads                :                    16


           -------------------------------------------------
          |                 G F N 2 - x T B                 |
           -------------------------------------------------

        Reference                      10.1021/acs.jctc.8b01176
      * Hamiltonian:
        H0-scaling (s, p, d)           1.850000    2.230000    2.230000
        zeta-weighting                 0.500000
      * Dispersion:
        s8                             2.700000
        a1                             0.520000
        a2                             5.000000
        s9                             5.000000
      * Repulsion:
        kExp                           1.500000    1.000000
        rExp                           1.000000
      * Coulomb:
        alpha                          2.000000
        third order                    shell-resolved
        anisotropic                    true
        a3                             3.000000
        a5                             4.000000
        cn-shift                       1.200000
        cn-exp                         4.000000
        max-rad                        5.000000


          ...................................................
          :                      SETUP                      :
          :.................................................:
          :  # basis functions                  30          :
          :  # atomic orbitals                  30          :
          :  # shells                           18          :
          :  # electrons                        32          :
          :  max. iterations                   250          :
          :  Hamiltonian                  GFN2-xTB          :
          :  restarted?                      false          :
          :  GBSA solvation                  false          :
          :  PC potential                    false          :
          :  electronic temp.          300.0000000     K    :
          :  accuracy                    1.0000000          :
          :  -> integral cutoff          0.2500000E+02      :
          :  -> integral neglect         0.1000000E-07      :
          :  -> SCF convergence          0.1000000E-05 Eh   :
          :  -> wf. convergence          0.1000000E-03 e    :
          :  Broyden damping             0.4000000          :
          :  net charge                          0          :
          :  unpaired electrons                  0          :
          ...................................................

 iter      E             dE          RMSdq      gap      omega  full diag
   1    -17.6433641 -0.176434E+02  0.349E+00    5.14       0.0  T
   2    -17.6854340 -0.420699E-01  0.267E+00    4.73       1.0  T
   3    -17.6941769 -0.874285E-02  0.147E+00    4.87       1.0  T
   4    -17.6939973  0.179615E-03  0.441E-01    4.71       1.0  T
   5    -17.6951572 -0.115997E-02  0.109E-01    4.79       1.0  T
   6    -17.6951710 -0.137483E-04  0.479E-02    4.78       1.0  T
   7    -17.6951839 -0.129605E-04  0.197E-02    4.79       1.5  T
   8    -17.6951842 -0.278389E-06  0.749E-03    4.79       3.9  T
   9    -17.6951845 -0.340282E-06  0.215E-03    4.79      13.4  T
  10    -17.6951846 -0.108580E-07  0.948E-04    4.79      30.4  T
  11    -17.6951846 -0.399898E-08  0.162E-04    4.79     178.0  T

   *** convergence criteria satisfied after 11 iterations ***

         #    Occupation            Energy/Eh            Energy/eV
      -------------------------------------------------------------
         1        2.0000           -0.6823656             -18.5681
       ...           ...                  ...                  ...
        10        2.0000           -0.4762058             -12.9582
        11        2.0000           -0.4719751             -12.8431
        12        2.0000           -0.4571445             -12.4395
        13        2.0000           -0.4469815             -12.1630
        14        2.0000           -0.3977531             -10.8234
        15        2.0000           -0.3876215             -10.5477
        16        2.0000           -0.3874558             -10.5432 (HOMO)
        17                         -0.2114152              -5.7529 (LUMO)
        18                         -0.1542144              -4.1964
        19                          0.0089323               0.2431
        20                          0.1065791               2.9002
        21                          0.1213496               3.3021
       ...                                ...                  ...
        30                          0.6596558              17.9501
      -------------------------------------------------------------
                  HL-Gap            0.1760406 Eh            4.7903 eV
             Fermi-level           -0.2994355 Eh           -8.1481 eV

 SCC (total)                   0 d,  0 h,  0 min,  3.412 sec
 SCC setup                      ...        0 min,  0.050 sec (  1.477%)
 Dispersion                     ...        0 min,  0.110 sec (  3.221%)
 classical contributions        ...        0 min,  0.034 sec (  0.988%)
 integral evaluation            ...        0 min,  0.299 sec (  8.775%)
 iterations                     ...        0 min,  2.446 sec ( 71.672%)
 molecular gradient             ...        0 min,  0.473 sec ( 13.864%)
 printout                       ...        0 min,  0.000 sec (  0.003%)

         :::::::::::::::::::::::::::::::::::::::::::::::::::::
         ::                     SUMMARY                     ::
         :::::::::::::::::::::::::::::::::::::::::::::::::::::
         :: total energy             -17.448064898002 Eh    ::
         :: gradient norm              0.039654892595 Eh/a0 ::
         :: HOMO-LUMO gap              4.790307205527 eV    ::
         ::.................................................::
         :: SCC energy               -17.695179698133 Eh    ::
         :: -> isotropic ES            0.010781273358 Eh    ::
         :: -> anisotropic ES          0.003631564946 Eh    ::
         :: -> anisotropic XC          0.015551975050 Eh    ::
         :: -> dispersion             -0.007180428885 Eh    ::
         :: repulsion energy           0.247114800131 Eh    ::
         :: add. restraining           0.000000000000 Eh    ::
         :: total charge               0.000000000000 e     ::
         :::::::::::::::::::::::::::::::::::::::::::::::::::::

      ----------------------------------------------------------- 
     |                   =====================                   |
     |                        A N C O P T                        |
     |                   =====================                   |
     |               Approximate Normal Coordinate               |
     |                Rational Function Optimizer                |
      ----------------------------------------------------------- 
      ----------------------------------------------------------- 
     |                   =====================                   |
     |                        A N C O P T                        |
     |                   =====================                   |
     |               Approximate Normal Coordinate               |
     |                Rational Function Optimizer                |
      ----------------------------------------------------------- 

          ...................................................
          :                      SETUP                      :
          :.................................................:
          :   optimization level             loose          :
          :   max. optcycles                   200          :
          :   ANC micro-cycles                  20          :
          :   degrees of freedom                30          :
          :.................................................:
          :   RF solver                   davidson          :
          :   write xtbopt.log                true          :
          :   linear?                        false          :
          :   energy convergence         0.5000000E-04 Eh   :
          :   grad. convergence          0.4000000E-02 Eh/α :
          :   maxmium RF displ.          1.0000000          :
          :   Hlow (freq-cutoff)         0.1000000E-01      :
          :   Hmax (freq-cutoff)         5.0000000          :
          :   S6 in model hess.         20.0000000          :
          ...................................................

generating ANC from exact Hessian ...
Using Lindh-Hessian (1995)
 Shifting diagonal of input Hessian by    7.8205651484842230E-004
 Lowest  eigenvalues of input Hessian
    0.000000    0.000000    0.000000    0.000000    0.000000    0.000000
    0.010000    0.011298    0.024021    0.025699    0.056246    0.058812
    0.075342    0.077851    0.107184    0.115453    0.129640    0.132932
 Highest eigenvalues
    1.152577    1.574471    1.772771    1.857280    1.999647    2.050984


........................................................................
.............................. CYCLE    1 ..............................
........................................................................

 iter      E             dE          RMSdq      gap      omega  full diag
   1    -17.6951846 -0.176952E+02  0.469E-05    4.79       0.0  T
   2    -17.6951846 -0.606093E-11  0.219E-05    4.79    1317.2  T
   3    -17.6951846 -0.458300E-12  0.134E-05    4.79    2150.4  T
     SCC iter.                  ...        0 min,  0.541 sec
     gradient                   ...        0 min,  0.536 sec
 * total energy  :   -17.4480649 Eh     change       -0.2722089E-10 Eh
   gradient norm :     0.0396547 Eh/α   predicted     0.0000000E+00 (-100.00%)
   displ. norm   :     0.0776552 α      lambda       -0.2304685E-02
   maximum displ.:     0.0500747 α      in ANC's #18, #13, #21, ...

........................................................................
.............................. CYCLE    2 ..............................
........................................................................

 iter      E             dE          RMSdq      gap      omega  full diag
   1    -17.7071142 -0.177071E+02  0.200E-01    4.81       0.0  T
   2    -17.7071513 -0.371982E-04  0.113E-01    4.80       1.0  T
   3    -17.7071483  0.301162E-05  0.468E-02    4.80       1.0  T
   4    -17.7071573 -0.900680E-05  0.108E-02    4.80       2.7  T
   5    -17.7071581 -0.750856E-06  0.387E-03    4.80       7.5  T
   6    -17.7071581 -0.194990E-07  0.196E-03    4.80      14.7  T
   7    -17.7071581 -0.124493E-07  0.291E-04    4.80      99.2  T
   8    -17.7071581 -0.105057E-09  0.178E-04    4.80     162.4  T
     SCC iter.                  ...        0 min,  2.019 sec
     gradient                   ...        0 min,  0.536 sec
 * total energy  :   -17.4494577 Eh     change       -0.1392849E-02 Eh
   gradient norm :     0.0118137 Eh/α   predicted    -0.1159289E-02 ( -16.77%)
   displ. norm   :     0.0283223 α      lambda       -0.1785717E-03
   maximum displ.:     0.0191805 α      in ANC's #3, #18, #5, ...

........................................................................
.............................. CYCLE    3 ..............................
........................................................................

 iter      E             dE          RMSdq      gap      omega  full diag
   1    -17.7106373 -0.177106E+02  0.513E-02    4.82       0.0  T
   2    -17.7106422 -0.494049E-05  0.297E-02    4.82       1.0  T
   3    -17.7106428 -0.555871E-06  0.152E-02    4.82       1.9  T
   4    -17.7106433 -0.513445E-06  0.267E-03    4.82      10.8  T
   5    -17.7106433 -0.354311E-07  0.108E-03    4.82      26.7  T
   6    -17.7106434 -0.253314E-08  0.526E-04    4.82      54.8  T
   7    -17.7106434 -0.774879E-09  0.928E-05    4.82     310.9  T
     SCC iter.                  ...        0 min,  2.299 sec
     gradient                   ...        0 min,  0.663 sec
 * total energy  :   -17.4495563 Eh     change       -0.9855994E-04 Eh
   gradient norm :     0.0031616 Eh/α   predicted    -0.8935707E-04 (  -9.34%)
   displ. norm   :     0.0112239 α      lambda       -0.1324620E-04
   maximum displ.:     0.0099209 α      in ANC's #3, #9, #21, ...

........................................................................
.............................. CYCLE    4 ..............................
........................................................................

 iter      E             dE          RMSdq      gap      omega  full diag
   1    -17.7107042 -0.177107E+02  0.139E-02    4.82       0.0  T
   2    -17.7107045 -0.268850E-06  0.819E-03    4.82       3.5  T
   3    -17.7107045 -0.320140E-07  0.441E-03    4.82       6.5  T
   4    -17.7107046 -0.425918E-07  0.571E-04    4.82      50.6  T
   5    -17.7107046 -0.204406E-08  0.207E-04    4.82     139.6  T
     SCC iter.                  ...        0 min,  0.673 sec
     gradient                   ...        0 min,  0.639 sec
 * total energy  :   -17.4495655 Eh     change       -0.9165084E-05 Eh
   gradient norm :     0.0012231 Eh/α   predicted    -0.6624607E-05 ( -27.72%)
   displ. norm   :     0.0146453 α      lambda       -0.4764092E-05
   maximum displ.:     0.0129843 α      in ANC's #3, #9, #19, ...

   *** GEOMETRY OPTIMIZATION CONVERGED AFTER 4 ITERATIONS ***

------------------------------------------------------------------------
 total energy gain   :        -0.0015006 Eh       -0.9416 kcal/mol
 total RMSD          :         0.0298158 a0        0.0158 Å
 total power (kW/mol):        -0.9849395 (step)   -0.4059 (real)
------------------------------------------------------------------------

 ANCopt (total)                0 d,  0 h,  0 min,  9.707 sec
 optimizer setup                ...        0 min,  0.000 sec (  0.002%)
 model hessian                  ...        0 min,  0.001 sec (  0.010%)
 ANC generation                 ...        0 min,  0.000 sec (  0.003%)
 coordinate transformation      ...        0 min,  0.000 sec (  0.000%)
 single point calculation       ...        0 min,  9.390 sec ( 96.736%)
 optimization log               ...        0 min,  0.000 sec (  0.003%)
 hessian update                 ...        0 min,  0.314 sec (  3.239%)
 rational function              ...        0 min,  0.001 sec (  0.005%)

================
 final structure:
================
12
 xtb: 6.7.1 (edcfbbe)
C            2.21651016595514        0.03051857262449       -0.00206047195977
C            0.72959197912917        0.06723619783174       -0.00086256474127
C           -0.10528548079836        1.20132020897813       -0.00112608049406
C           -1.38503569905376        0.70340292857906        0.00011911141052
N           -1.26986892813520       -0.63964852041621        0.00094409833616
N            0.00097599271685       -1.03653480635877        0.00031649755302
H            2.61674712645911        1.04092606604331        0.00261345224823
H            2.57894445786606       -0.49376918942436       -0.88432462793884
H            2.58015077183861       -0.50270568044573        0.87427414602813
H            0.19626824252937        2.22853816463554       -0.00197976305548
H           -2.33949403095999        1.18952283623031        0.00047074162343
H           -2.00465459754700       -1.32822677827752        0.00202546098994

 Bond Distances (Angstroems)
 ---------------------------
C1-C2=1.4874         C1-H7=1.0868         C1-H8=1.0884         C1-H9=1.0884         C2-C1=1.4874         C2-C3=1.4082         
C2-N6=1.3226         C3-C2=1.4082         C3-C4=1.3732         C3-H10=1.0706        C4-C3=1.3732         C4-N5=1.3480         
C4-H11=1.0711        N5-C4=1.3480         N5-N6=1.3314         N5-H12=1.0070        N6-C2=1.3226         N6-N5=1.3314         
H7-C1=1.0868         H8-C1=1.0884         H9-C1=1.0884         H10-C3=1.0706        H11-C4=1.0711        H12-N5=1.0070        
 C  H  Rav=1.0811 sigma=0.0084  Rmin=1.0706  Rmax=1.0884     5
 C  C  Rav=1.4229 sigma=0.0478  Rmin=1.3732  Rmax=1.4874     3
 N  H  Rav=1.0070 sigma=0.0000  Rmin=1.0070  Rmax=1.0070     1
 N  C  Rav=1.3353 sigma=0.0127  Rmin=1.3226  Rmax=1.3480     2
 N  N  Rav=1.3314 sigma=0.0000  Rmin=1.3314  Rmax=1.3314     1

 selected bond angles (degree)
 --------------------
H7-C1-C2=110.19                H8-C1-C2=110.21                H8-C1-H7=109.19                H9-C1-C2=110.21                
H9-C1-H7=109.21                H9-C1-H8=107.78                C3-C2-C1=127.77                N6-C2-C1=122.01                
N6-C2-C3=110.21                C4-C3-C2=105.10                H10-C3-C2=127.28               H10-C3-C4=127.62               
N5-C4-C3=106.36                H11-C4-C3=131.75               H11-C4-N5=121.89               N6-N5-C4=112.24                
H12-N5-C4=128.24               H12-N5-N6=119.52               N5-N6-C2=106.09                

 selected dihedral angles (degree)
 ---------------------------------
C3-C2-C1-H7=  0.33            C3-C2-C1-H8=239.76            C3-C2-C1-H9=120.92            N6-C2-C1-H7=180.31            
N6-C2-C1-H8= 59.74            N6-C2-C1-H9=300.90            C4-C3-C2-C1=179.99            C4-C3-C2-N6=  0.00            
H10-C3-C2-C1=  0.00           H10-C3-C2-N6=180.00           N5-C4-C3-C2=  0.00            N5-C4-C3-H10=180.00           
H11-C4-C3-C2=180.00           H11-C4-C3-H10=  0.00          N6-N5-C4-C3=  0.00            N6-N5-C4-H11=180.00           
H12-N5-C4-C3=179.99           H12-N5-C4-H11=  0.00          N5-N6-C2-C1=180.01            N5-N6-C2-C3=  0.00            
C2-N6-N5-C4=  0.00            C2-N6-N5-H12=180.01           
           -------------------------------------------------
          |                Final Singlepoint                |
           -------------------------------------------------

          ...................................................
          :                      SETUP                      :
          :.................................................:
          :  # basis functions                  30          :
          :  # atomic orbitals                  30          :
          :  # shells                           18          :
          :  # electrons                        32          :
          :  max. iterations                   250          :
          :  Hamiltonian                  GFN2-xTB          :
          :  restarted?                      false          :
          :  GBSA solvation                  false          :
          :  PC potential                    false          :
          :  electronic temp.          300.0000000     K    :
          :  accuracy                    1.0000000          :
          :  -> integral cutoff          0.2500000E+02      :
          :  -> integral neglect         0.1000000E-07      :
          :  -> SCF convergence          0.1000000E-05 Eh   :
          :  -> wf. convergence          0.1000000E-03 e    :
          :  Broyden damping             0.4000000          :
          :  net charge                          0          :
          :  unpaired electrons                  0          :
          ...................................................

 iter      E             dE          RMSdq      gap      omega  full diag
   1    -17.7107046 -0.177107E+02  0.867E-05    4.82       0.0  T
   2    -17.7107046 -0.528289E-11  0.499E-05    4.82     578.7  T
   3    -17.7107046  0.365930E-12  0.280E-05    4.82    1030.2  T

   *** convergence criteria satisfied after 3 iterations ***

         #    Occupation            Energy/Eh            Energy/eV
      -------------------------------------------------------------
         1        2.0000           -0.6859632             -18.6660
       ...           ...                  ...                  ...
        10        2.0000           -0.4760694             -12.9545
        11        2.0000           -0.4715699             -12.8321
        12        2.0000           -0.4585811             -12.4786
        13        2.0000           -0.4471563             -12.1677
        14        2.0000           -0.3958681             -10.7721
        15        2.0000           -0.3894316             -10.5970
        16        2.0000           -0.3826631             -10.4128 (HOMO)
        17                         -0.2053843              -5.5888 (LUMO)
        18                         -0.1500481              -4.0830
        19                          0.0207582               0.5649
        20                          0.1163971               3.1673
        21                          0.1325894               3.6079
       ...                                ...                  ...
        30                          0.6770235              18.4227
      -------------------------------------------------------------
                  HL-Gap            0.1772788 Eh            4.8240 eV
             Fermi-level           -0.2940237 Eh           -8.0008 eV

 SCC (total)                   0 d,  0 h,  0 min,  1.504 sec
 SCC setup                      ...        0 min,  0.060 sec (  3.979%)
 Dispersion                     ...        0 min,  0.160 sec ( 10.607%)
 classical contributions        ...        0 min,  0.052 sec (  3.454%)
 integral evaluation            ...        0 min,  0.161 sec ( 10.698%)
 iterations                     ...        0 min,  0.582 sec ( 38.698%)
 molecular gradient             ...        0 min,  0.477 sec ( 31.701%)
 printout                       ...        0 min,  0.013 sec (  0.860%)

         :::::::::::::::::::::::::::::::::::::::::::::::::::::
         ::                     SUMMARY                     ::
         :::::::::::::::::::::::::::::::::::::::::::::::::::::
         :: total energy             -17.449565472625 Eh    ::
         :: gradient norm              0.001224294001 Eh/a0 ::
         :: HOMO-LUMO gap              4.824002990053 eV    ::
         ::.................................................::
         :: SCC energy               -17.710699910035 Eh    ::
         :: -> isotropic ES            0.010969590692 Eh    ::
         :: -> anisotropic ES          0.003398592197 Eh    ::
         :: -> anisotropic XC          0.015476105550 Eh    ::
         :: -> dispersion             -0.007191513931 Eh    ::
         :: repulsion energy           0.261134437410 Eh    ::
         :: add. restraining           0.000000000000 Eh    ::
         :: total charge              -0.000000000000 e     ::
         :::::::::::::::::::::::::::::::::::::::::::::::::::::

           -------------------------------------------------
          |                Property Printout                |
           -------------------------------------------------

    * Orbital Energies and Occupations

         #    Occupation            Energy/Eh            Energy/eV
      -------------------------------------------------------------
         1        2.0000           -0.6859632             -18.6660
       ...           ...                  ...                  ...
         4        2.0000           -0.5991091             -16.3026
         5        2.0000           -0.5722367             -15.5714
         6        2.0000           -0.5526168             -15.0375
         7        2.0000           -0.5401630             -14.6986
         8        2.0000           -0.5326697             -14.4947
         9        2.0000           -0.4903265             -13.3425
        10        2.0000           -0.4760694             -12.9545
        11        2.0000           -0.4715699             -12.8321
        12        2.0000           -0.4585811             -12.4786
        13        2.0000           -0.4471563             -12.1677
        14        2.0000           -0.3958681             -10.7721
        15        2.0000           -0.3894316             -10.5970
        16        2.0000           -0.3826631             -10.4128 (HOMO)
        17                         -0.2053843              -5.5888 (LUMO)
        18                         -0.1500481              -4.0830
        19                          0.0207582               0.5649
        20                          0.1163971               3.1673
        21                          0.1325894               3.6079
        22                          0.1871520               5.0927
        23                          0.1882584               5.1228
        24                          0.2130788               5.7982
        25                          0.2325021               6.3267
        26                          0.2416721               6.5762
        27                          0.2937460               7.9932
       ...                                ...                  ...
        30                          0.6770235              18.4227
      -------------------------------------------------------------
                  HL-Gap            0.1772788 Eh            4.8240 eV
             Fermi-level           -0.2940237 Eh           -8.0008 eV

     #   Z          covCN         q      C6AA      α(0)
     1   6 C        3.755    -0.110    22.663     6.788
     2   6 C        3.156     0.073    26.084     8.351
     3   6 C        3.032    -0.080    29.953     8.977
     4   6 C        3.008    -0.008    28.210     8.713
     5   7 N        3.001     0.004    21.181     6.835
     6   7 N        2.002    -0.237    26.992     7.706
     7   1 H        0.925     0.041     2.436     2.441
     8   1 H        0.925     0.052     2.297     2.370
     9   1 H        0.925     0.052     2.296     2.370
    10   1 H        0.926     0.024     2.678     2.559
    11   1 H        0.926     0.030     2.581     2.512
    12   1 H        0.860     0.159     1.340     1.813

 Mol. C6AA /au·bohr⁶  :       1551.524883
 Mol. C8AA /au·bohr⁸  :      35383.467225
 Mol. α(0) /au        :         61.434601


Wiberg/Mayer (AO) data.
largest (>0.10) Wiberg bond orders for each atom

 ---------------------------------------------------------------------------
     #   Z sym  total        # sym  WBO       # sym  WBO       # sym  WBO
 ---------------------------------------------------------------------------
     1   6 C    3.997 --     2 C    1.028     7 H    0.986     9 H    0.972
                             8 H    0.972
     2   6 C    3.978 --     6 N    1.495     3 C    1.334     1 C    1.028
     3   6 C    3.978 --     4 C    1.520     2 C    1.334    10 H    0.975
     4   6 C    3.958 --     3 C    1.520     5 N    1.280    11 H    0.969
                             6 N    0.168
     5   7 N    3.620 --     4 C    1.280     6 N    1.204    12 H    0.945
     6   7 N    2.959 --     2 C    1.495     5 N    1.204     4 C    0.168
     7   1 H    0.998 --     1 C    0.986
     8   1 H    0.997 --     1 C    0.972
     9   1 H    0.997 --     1 C    0.972
    10   1 H    0.999 --     3 C    0.975
    11   1 H    0.999 --     4 C    0.969
    12   1 H    0.975 --     5 N    0.945
 ---------------------------------------------------------------------------

Topologies differ in total number of bonds
Writing topology from bond orders to xtbtopo.mol

molecular dipole:
                 x           y           z       tot (Debye)
 q only:       -0.354       0.021       0.000
   full:       -0.623       0.287       0.000       1.744
molecular quadrupole (traceless):
                xx          xy          yy          xz          yz          zz
 q only:        4.125       1.853      -1.903      -0.006      -0.002      -2.222
  q+dip:        5.974       3.010      -2.294      -0.010      -0.004      -3.680
   full:        5.696       2.911      -3.105      -0.009      -0.003      -2.591

           -------------------------------------------------
Note: The following floating-point exceptions are signalling: IEEE_DENORMAL
normal termination of xtb
          |                Geometry Summary                 |
           -------------------------------------------------

      molecular mass/u    :       82.1039945
   center of mass at/Å    :        0.0410305       0.0331855      -0.0004448
  moments of inertia/u·Å² :        0.5539233E+02   0.1425038E+03   0.1947788E+03
rotational constants/cm⁻¹ :        0.3043315E+00   0.1182961E+00   0.8654758E-01

 * 12 selected distances

     #   Z          #   Z                                           value/Å
     1   6 C        2   6 C                                       1.4873721 (max)
     2   6 C        3   6 C                                       1.4082497
     3   6 C        4   6 C                                       1.3732021
     4   6 C        5   7 N                                       1.3479806
     2   6 C        6   7 N                                       1.3225708
     5   7 N        6   7 N                                       1.3313776
     1   6 C        7   1 H                                       1.0868003
     1   6 C        8   1 H                                       1.0884055
     1   6 C        9   1 H                                       1.0883589
     3   6 C       10   1 H                                       1.0705664
     4   6 C       11   1 H                                       1.0711226
     5   7 N       12   1 H                                       1.0070012 (min)

 * 5 distinct bonds (by element types)

   Z      Z             #   av. dist./Å        max./Å        min./Å
   1 H    6 C           5     1.0810507     1.0884055     1.0705664
   6 C    6 C           3     1.4229413     1.4873721     1.3732021
   1 H    7 N           1     1.0070012     1.0070012     1.0070012
   6 C    7 N           2     1.3352757     1.3479806     1.3225708
   7 N    7 N           1     1.3313776     1.3313776     1.3313776


optimized geometry written to: xtbopt.xyz


           -------------------------------------------------
          | TOTAL ENERGY              -17.449565472625 Eh   |
          | GRADIENT NORM               0.001224294001 Eh/α |
          | HOMO-LUMO GAP               4.824002990053 eV   |
           -------------------------------------------------

------------------------------------------------------------------------
 * finished run on 2026/08/20 at 02:34:43.629     
------------------------------------------------------------------------
 total:
 * wall-time:     0 d,  0 h,  0 min, 15.156 sec
 *  cpu-time:     0 d,  0 h,  0 min, 29.213 sec
 * ratio c/w:     1.927 speedup
 SCF:
 * wall-time:     0 d,  0 h,  0 min,  3.413 sec
 *  cpu-time:     0 d,  0 h,  0 min,  6.663 sec
 * ratio c/w:     1.953 speedup
 ANC optimizer:
 * wall-time:     0 d,  0 h,  0 min, 11.231 sec
 *  cpu-time:     0 d,  0 h,  0 min, 21.417 sec
 * ratio c/w:     1.907 speedup

