12
 energy: -17.449565472625 gnorm: 0.001224294001 xtb: 6.7.1 (edcfbbe)
C            2.21651016595514        0.03051857262449       -0.00206047195977
C            0.72959197912917        0.06723619783174       -0.00086256474127
C           -0.10528548079836        1.20132020897813       -0.00112608049406
C           -1.38503569905376        0.70340292857906        0.00011911141052
N           -1.26986892813520       -0.63964852041621        0.00094409833616
N            0.00097599271685       -1.03653480635877        0.00031649755302
H            2.61674712645911        1.04092606604331        0.00261345224823
H            2.57894445786606       -0.49376918942436       -0.88432462793884
H            2.58015077183861       -0.50270568044573        0.87427414602813
H            0.19626824252937        2.22853816463554       -0.00197976305548
H           -2.33949403095999        1.18952283623031        0.00047074162343
H           -2.00465459754700       -1.32822677827752        0.00202546098994
