      -----------------------------------------------------------      
     |                   =====================                   |     
     |                           x T B                           |     
     |                   =====================                   |     
     |                         S. Grimme                         |     
     |          Mulliken Center for Theoretical Chemistry        |     
     |                    University of Bonn                     |     
      -----------------------------------------------------------      

   * xtb version 6.7.1 (edcfbbe) compiled by 'conda@3ef47c1a292c' on 2024-11-25

   xtb is free software: you can redistribute it and/or modify it under
   the terms of the GNU Lesser General Public License as published by
   the Free Software Foundation, either version 3 of the License, or
   (at your option) any later version.
   
   xtb is distributed in the hope that it will be useful,
   but WITHOUT ANY WARRANTY; without even the implied warranty of
   MERCHANTABILITY or FITNESS FOR A PARTICULAR PURPOSE.  See the
   GNU Lesser General Public License for more details.
   
   Cite this work as:
   * C. Bannwarth, E. Caldeweyher, S. Ehlert, A. Hansen, P. Pracht,
     J. Seibert, S. Spicher, S. Grimme, WIREs Comput. Mol. Sci., 2020, 11,
     e01493. DOI: 10.1002/wcms.1493
   
   for GFN2-xTB:
   * C. Bannwarth, S. Ehlert and S. Grimme., J. Chem. Theory Comput., 2019,
     15, 1652-1671. DOI: 10.1021/acs.jctc.8b01176
   for GFN1-xTB:
   * S. Grimme, C. Bannwarth, P. Shushkov, J. Chem. Theory Comput., 2017,
     13, 1989-2009. DOI: 10.1021/acs.jctc.7b00118
   for GFN0-xTB:
   * P. Pracht, E. Caldeweyher, S. Ehlert, S. Grimme, ChemRxiv, 2019, preprint.
     DOI: 10.26434/chemrxiv.8326202.v1
   for GFN-FF:
   * S. Spicher and S. Grimme, Angew. Chem. Int. Ed., 2020, 59, 15665-15673.
     DOI: 10.1002/anie.202004239
   
   for ALPB and GBSA implicit solvation:
   * S. Ehlert, M. Stahn, S. Spicher, S. Grimme, J. Chem. Theory Comput.,
     2021, 17, 4250-4261. DOI: 10.1021/acs.jctc.1c00471
   
   for ddCOSMO and CPCM-X implicit solvation:
   * M. Stahn, S. Ehlert, S. Grimme, J. Phys. Chem. A,
     2023, XX, XXXX-XXXX. DOI: 10.1021/acs.jpca.3c04382
   
   for DFT-D4:
   * E. Caldeweyher, C. Bannwarth and S. Grimme, J. Chem. Phys., 2017,
     147, 034112. DOI: 10.1063/1.4993215
   * E. Caldeweyher, S. Ehlert, A. Hansen, H. Neugebauer, S. Spicher,
     C. Bannwarth and S. Grimme, J. Chem. Phys., 2019, 150, 154122.
     DOI: 10.1063/1.5090222
   * E. Caldeweyher, J.-M. Mewes, S. Ehlert and S. Grimme, Phys. Chem. Chem. Phys.
     2020, 22, 8499-8512. DOI: 10.1039/D0CP00502A
   
   for sTDA-xTB:
   * S. Grimme and C. Bannwarth, J. Chem. Phys., 2016, 145, 054103.
     DOI: 10.1063/1.4959605
   
   in the mass-spec context:
   * V. Asgeirsson, C. Bauer and S. Grimme, Chem. Sci., 2017, 8, 4879.
     DOI: 10.1039/c7sc00601b
   * J. Koopman and S. Grimme, ACS Omega 2019, 4, 12, 15120-15133.
     DOI: 10.1021/acsomega.9b02011
   
   for metadynamics refer to:
   * S. Grimme, J. Chem. Theory Comput., 2019, 155, 2847-2862
     DOI: 10.1021/acs.jctc.9b00143
   
   for SPH calculations refer to:
   * S. Spicher and S. Grimme, J. Chem. Theory Comput., 2021, 17, 1701-1714
     DOI: 10.1021/acs.jctc.0c01306
   
   for ONIOM refer to:
   * C. Plett, A. Katbashev, S. Ehlert, S. Grimme, M. Bursch,
     Phys. Chem. Chem. Phys., 2023, 25, 17860-17868. DOI: 10.1039/D3CP02178E
   
   for DIPRO refer to:
   * J. Kohn, N. Gildemeister, S. Grimme, D. Fazzi, A. Hansen,
     J. Chem. Phys., 2023, just accepted.
   
   for PTB refer to:
   * S. Grimme, M. Mueller, A. Hansen, J. Chem. Phys., 2023, 158, 124111.
     DOI: 10.1063/5.0137838
   
   with help from (in alphabetical order)
   P. Atkinson, C. Bannwarth, F. Bohle, G. Brandenburg, E. Caldeweyher
   M. Checinski, S. Dohm, S. Ehlert, S. Ehrlich, I. Gerasimov, C. Hölzer
   A. Katbashev, J. Kohn, J. Koopman, C. Lavigne, S. Lehtola, F. März, M. Müller,
   F. Musil, H. Neugebauer, J. Pisarek, C. Plett, P. Pracht, F. Pultar,
   J. Seibert, P. Shushkov, S. Spicher, M. Stahn, M. Steiner, T. Strunk,
   J. Stückrath, T. Rose, and J. Unsleber
   
 * started run on 2026/08/20 at 02:54:30.274     
   ID    Z sym.   atoms
    1   16 S      1
    2    8 O      2

           -------------------------------------------------
          |                Calculation Setup                |
           -------------------------------------------------

          program call               : xtb so_triplet.xtbopt.xyz --gfn 2 --namespace so_triplet_sp --uhf 2
          calculation namespace      : so_triplet_sp
          coordinate file            : so_triplet.xtbopt.xyz
          omp threads                :                    16


           -------------------------------------------------
          |                 G F N 2 - x T B                 |
           -------------------------------------------------

        Reference                      10.1021/acs.jctc.8b01176
      * Hamiltonian:
        H0-scaling (s, p, d)           1.850000    2.230000    2.230000
        zeta-weighting                 0.500000
      * Dispersion:
        s8                             2.700000
        a1                             0.520000
        a2                             5.000000
        s9                             5.000000
      * Repulsion:
        kExp                           1.500000    1.000000
        rExp                           1.000000
      * Coulomb:
        alpha                          2.000000
        third order                    shell-resolved
        anisotropic                    true
        a3                             3.000000
        a5                             4.000000
        cn-shift                       1.200000
        cn-exp                         4.000000
        max-rad                        5.000000


          ...................................................
          :                      SETUP                      :
          :.................................................:
          :  # basis functions                  14          :
          :  # atomic orbitals                  13          :
          :  # shells                            5          :
          :  # electrons                        12          :
          :  max. iterations                   250          :
          :  Hamiltonian                  GFN2-xTB          :
          :  restarted?                      false          :
          :  GBSA solvation                  false          :
          :  PC potential                    false          :
          :  electronic temp.          300.0000000     K    :
          :  accuracy                    1.0000000          :
          :  -> integral cutoff          0.2500000E+02      :
          :  -> integral neglect         0.1000000E-07      :
          :  -> SCF convergence          0.1000000E-05 Eh   :
          :  -> wf. convergence          0.1000000E-03 e    :
          :  Broyden damping             0.4000000          :
          :  net charge                          0          :
          :  unpaired electrons                  2          :
          ...................................................

 iter      E             dE          RMSdq      gap      omega  full diag
   1     -7.2365021 -0.723650E+01  0.721E+00    5.28       0.0  T
   2     -7.2518745 -0.153724E-01  0.244E+00    5.23       1.0  T
   3     -7.2523298 -0.455277E-03  0.147E+00    5.28       1.0  T
   4     -7.2524962 -0.166356E-03  0.217E-01    5.28       1.0  T
   5     -7.2524769  0.192291E-04  0.172E-01    5.28       1.0  T
   6     -7.2524760  0.896028E-06  0.175E-01    5.28       1.0  T
   7     -7.2525032 -0.271314E-04  0.589E-03    5.28      12.0  T
   8     -7.2525032 -0.277649E-07  0.325E-03    5.28      21.8  T
   9     -7.2525032 -0.777583E-08  0.211E-04    5.28     334.5  T
  10     -7.2525032 -0.392850E-10  0.279E-05    5.28    2537.9  T

   *** convergence criteria satisfied after 10 iterations ***

         #    Occupation            Energy/Eh            Energy/eV
      -------------------------------------------------------------
         1        2.0000           -0.7729629             -21.0334
         2        2.0000           -0.6760585             -18.3965
         3        2.0000           -0.5392045             -14.6725
         4        2.0000           -0.5332361             -14.5101
         5        2.0000           -0.5332361             -14.5101
         6        1.0000           -0.3723099             -10.1311
         7        1.0000           -0.3723099             -10.1311 (HOMO)
         8                         -0.1783815              -4.8540 (LUMO)
         9                         -0.0418004              -1.1374
        10                         -0.0418004              -1.1374
        11                          0.0702732               1.9122
        12                          0.0702732               1.9122
        13                          0.7813748              21.2623
      -------------------------------------------------------------
                  HL-Gap            0.1939284 Eh            5.2771 eV
             Fermi-level           -0.3640594 Eh           -9.9066 eV

 transition dipole moment (au) for excitation:           6           7
     X       Y       Z   
  -0.0000  -0.0000   0.0000  total (au/Debye):    0.000   0.000
 dE (eV)             :    0.000
 oscillator strength :  0.10901E-45

 SCC (total)                   0 d,  0 h,  0 min,  0.007 sec
 SCC setup                      ...        0 min,  0.003 sec ( 42.521%)
 Dispersion                     ...        0 min,  0.000 sec (  0.484%)
 classical contributions        ...        0 min,  0.000 sec (  0.288%)
 integral evaluation            ...        0 min,  0.002 sec ( 25.724%)
 iterations                     ...        0 min,  0.001 sec ( 19.669%)
 molecular gradient             ...        0 min,  0.000 sec (  4.932%)
 printout                       ...        0 min,  0.000 sec (  6.105%)

         :::::::::::::::::::::::::::::::::::::::::::::::::::::
         ::                     SUMMARY                     ::
         :::::::::::::::::::::::::::::::::::::::::::::::::::::
         :: total energy              -7.234979053180 Eh    ::
         :: gradient norm              0.000143374277 Eh/a0 ::
         :: HOMO-LUMO gap              5.277059985268 eV    ::
         ::.................................................::
         :: SCC energy                -7.252503197484 Eh    ::
         :: -> isotropic ES            0.016969568520 Eh    ::
         :: -> anisotropic ES          0.000112229463 Eh    ::
         :: -> anisotropic XC         -0.000824051010 Eh    ::
         :: -> dispersion             -0.000467780991 Eh    ::
         :: repulsion energy           0.017524144304 Eh    ::
         :: add. restraining           0.000000000000 Eh    ::
         :: total charge              -0.000000000000 e     ::
         :::::::::::::::::::::::::::::::::::::::::::::::::::::

           -------------------------------------------------
          |                Property Printout                |
           -------------------------------------------------

    * Orbital Energies and Occupations

         #    Occupation            Energy/Eh            Energy/eV
      -------------------------------------------------------------
         1        2.0000           -0.7729629             -21.0334
         2        2.0000           -0.6760585             -18.3965
         3        2.0000           -0.5392045             -14.6725
         4        2.0000           -0.5332361             -14.5101
         5        2.0000           -0.5332361             -14.5101
         6        1.0000           -0.3723099             -10.1311
         7        1.0000           -0.3723099             -10.1311 (HOMO)
         8                         -0.1783815              -4.8540 (LUMO)
         9                         -0.0418004              -1.1374
        10                         -0.0418004              -1.1374
        11                          0.0702732               1.9122
        12                          0.0702732               1.9122
        13                          0.7813748              21.2623
      -------------------------------------------------------------
Note: The following floating-point exceptions are signalling: IEEE_DENORMAL
normal termination of xtb
                  HL-Gap            0.1939284 Eh            5.2771 eV
             Fermi-level           -0.3640594 Eh           -9.9066 eV

     #   Z          covCN         q      C6AA      α(0)
     1  16 S        0.859     0.311   127.216    19.078
     2   8 O        0.859    -0.311    19.974     5.992

 Mol. C6AA /au·bohr⁶  :        245.024521
 Mol. C8AA /au·bohr⁸  :       9711.777637
 Mol. α(0) /au        :         25.069745


Wiberg/Mayer (AO) data.
largest (>0.10) Wiberg bond orders for each atom

 ---------------------------------------------------------------------------
     #   Z sym  total        # sym  WBO       # sym  WBO       # sym  WBO
 ---------------------------------------------------------------------------
     1  16 S    2.164 --     2 O    2.164
     2   8 O    2.164 --     1 S    2.164
 ---------------------------------------------------------------------------

Topologies differ in total number of bonds
Writing topology from bond orders to xtbtopo.mol

molecular dipole:
                 x           y           z       tot (Debye)
 q only:        0.861       0.000       0.000
   full:        0.720      -0.000      -0.000       1.829
molecular quadrupole (traceless):
                xx          xy          yy          xz          yz          zz
 q only:       -0.000       0.000       0.000       0.000       0.000       0.000
  q+dip:       -1.126      -0.000       0.563      -0.000       0.000       0.563
   full:       -1.269      -0.000       0.634      -0.000      -0.000       0.634


           -------------------------------------------------
          | TOTAL ENERGY               -7.234979053180 Eh   |
          | GRADIENT NORM               0.000143374277 Eh/α |
          | HOMO-LUMO GAP               5.277059985268 eV   |
           -------------------------------------------------

------------------------------------------------------------------------
 * finished run on 2026/08/20 at 02:54:30.391     
------------------------------------------------------------------------
 total:
 * wall-time:     0 d,  0 h,  0 min,  0.117 sec
 *  cpu-time:     0 d,  0 h,  0 min,  1.774 sec
 * ratio c/w:    15.218 speedup
 SCF:
 * wall-time:     0 d,  0 h,  0 min,  0.007 sec
 *  cpu-time:     0 d,  0 h,  0 min,  0.119 sec
 * ratio c/w:    17.590 speedup

