17
Properties=species:S:1:pos:R:3 energy:=T -27.889160547186=T gnorm:=T 0.000245368589=T xtb:=T 6.7.1=T (edcfbbe)=T pbc="F F F"
C       -2.27713600      -1.27288052      -0.33452191
C       -1.17728002      -0.29756434      -0.10131570
C       -1.31896255       1.02420926       0.03960441
C       -0.22113653       1.91068849       0.29316262
N        1.00675839       1.55426423       0.39739745
N        0.19399569       0.02910011       0.06983708
C        1.58918098      -0.25979596       0.30244487
S        2.16508142      -3.11036842       0.27483345
O        2.09761519      -3.75625389       1.58168690
H       -3.24613926      -0.77941004      -0.36507863
H       -2.28023403      -2.01377825       0.46523636
H       -2.11695093      -1.80332591      -1.27427592
H       -2.30477247       1.46711398      -0.02721479
H       -0.40549840       2.96456263       0.42896872
H        1.98921477      -0.82795658      -0.53885777
H        1.71048872      -0.84640289       1.21643318
H        2.12660811       0.68040309       0.40277847
