      -----------------------------------------------------------      
     |                   =====================                   |     
     |                           x T B                           |     
     |                   =====================                   |     
     |                         S. Grimme                         |     
     |          Mulliken Center for Theoretical Chemistry        |     
     |                    University of Bonn                     |     
      -----------------------------------------------------------      

   * xtb version 6.7.1 (edcfbbe) compiled by 'conda@3ef47c1a292c' on 2024-11-25

   xtb is free software: you can redistribute it and/or modify it under
   the terms of the GNU Lesser General Public License as published by
   the Free Software Foundation, either version 3 of the License, or
   (at your option) any later version.
   
   xtb is distributed in the hope that it will be useful,
   but WITHOUT ANY WARRANTY; without even the implied warranty of
   MERCHANTABILITY or FITNESS FOR A PARTICULAR PURPOSE.  See the
   GNU Lesser General Public License for more details.
   
   Cite this work as:
   * C. Bannwarth, E. Caldeweyher, S. Ehlert, A. Hansen, P. Pracht,
     J. Seibert, S. Spicher, S. Grimme, WIREs Comput. Mol. Sci., 2020, 11,
     e01493. DOI: 10.1002/wcms.1493
   
   for GFN2-xTB:
   * C. Bannwarth, S. Ehlert and S. Grimme., J. Chem. Theory Comput., 2019,
     15, 1652-1671. DOI: 10.1021/acs.jctc.8b01176
   for GFN1-xTB:
   * S. Grimme, C. Bannwarth, P. Shushkov, J. Chem. Theory Comput., 2017,
     13, 1989-2009. DOI: 10.1021/acs.jctc.7b00118
   for GFN0-xTB:
   * P. Pracht, E. Caldeweyher, S. Ehlert, S. Grimme, ChemRxiv, 2019, preprint.
     DOI: 10.26434/chemrxiv.8326202.v1
   for GFN-FF:
   * S. Spicher and S. Grimme, Angew. Chem. Int. Ed., 2020, 59, 15665-15673.
     DOI: 10.1002/anie.202004239
   
   for ALPB and GBSA implicit solvation:
   * S. Ehlert, M. Stahn, S. Spicher, S. Grimme, J. Chem. Theory Comput.,
     2021, 17, 4250-4261. DOI: 10.1021/acs.jctc.1c00471
   
   for ddCOSMO and CPCM-X implicit solvation:
   * M. Stahn, S. Ehlert, S. Grimme, J. Phys. Chem. A,
     2023, XX, XXXX-XXXX. DOI: 10.1021/acs.jpca.3c04382
   
   for DFT-D4:
   * E. Caldeweyher, C. Bannwarth and S. Grimme, J. Chem. Phys., 2017,
     147, 034112. DOI: 10.1063/1.4993215
   * E. Caldeweyher, S. Ehlert, A. Hansen, H. Neugebauer, S. Spicher,
     C. Bannwarth and S. Grimme, J. Chem. Phys., 2019, 150, 154122.
     DOI: 10.1063/1.5090222
   * E. Caldeweyher, J.-M. Mewes, S. Ehlert and S. Grimme, Phys. Chem. Chem. Phys.
     2020, 22, 8499-8512. DOI: 10.1039/D0CP00502A
   
   for sTDA-xTB:
   * S. Grimme and C. Bannwarth, J. Chem. Phys., 2016, 145, 054103.
     DOI: 10.1063/1.4959605
   
   in the mass-spec context:
   * V. Asgeirsson, C. Bauer and S. Grimme, Chem. Sci., 2017, 8, 4879.
     DOI: 10.1039/c7sc00601b
   * J. Koopman and S. Grimme, ACS Omega 2019, 4, 12, 15120-15133.
     DOI: 10.1021/acsomega.9b02011
   
   for metadynamics refer to:
   * S. Grimme, J. Chem. Theory Comput., 2019, 155, 2847-2862
     DOI: 10.1021/acs.jctc.9b00143
   
   for SPH calculations refer to:
   * S. Spicher and S. Grimme, J. Chem. Theory Comput., 2021, 17, 1701-1714
     DOI: 10.1021/acs.jctc.0c01306
   
   for ONIOM refer to:
   * C. Plett, A. Katbashev, S. Ehlert, S. Grimme, M. Bursch,
     Phys. Chem. Chem. Phys., 2023, 25, 17860-17868. DOI: 10.1039/D3CP02178E
   
   for DIPRO refer to:
   * J. Kohn, N. Gildemeister, S. Grimme, D. Fazzi, A. Hansen,
     J. Chem. Phys., 2023, just accepted.
   
   for PTB refer to:
   * S. Grimme, M. Mueller, A. Hansen, J. Chem. Phys., 2023, 158, 124111.
     DOI: 10.1063/5.0137838
   
   with help from (in alphabetical order)
   P. Atkinson, C. Bannwarth, F. Bohle, G. Brandenburg, E. Caldeweyher
   M. Checinski, S. Dohm, S. Ehlert, S. Ehrlich, I. Gerasimov, C. Hölzer
   A. Katbashev, J. Kohn, J. Koopman, C. Lavigne, S. Lehtola, F. März, M. Müller,
   F. Musil, H. Neugebauer, J. Pisarek, C. Plett, P. Pracht, F. Pultar,
   J. Seibert, P. Shushkov, S. Spicher, M. Stahn, M. Steiner, T. Strunk,
   J. Stückrath, T. Rose, and J. Unsleber
   
 * started run on 2026/08/20 at 02:37:48.867     
   ID    Z sym.   atoms
    1    6 C      1-3, 6, 7
    2    7 N      4, 5
    3    1 H      8-15

           -------------------------------------------------
          |                Calculation Setup                |
           -------------------------------------------------

          program call               : xtb pyrazole_seed.xyz --opt normal --gfn 2 --namespace pyrazole
          calculation namespace      : pyrazole
          coordinate file            : pyrazole_seed.xyz
          omp threads                :                    16


           -------------------------------------------------
          |                 G F N 2 - x T B                 |
           -------------------------------------------------

        Reference                      10.1021/acs.jctc.8b01176
      * Hamiltonian:
        H0-scaling (s, p, d)           1.850000    2.230000    2.230000
        zeta-weighting                 0.500000
      * Dispersion:
        s8                             2.700000
        a1                             0.520000
        a2                             5.000000
        s9                             5.000000
      * Repulsion:
        kExp                           1.500000    1.000000
        rExp                           1.000000
      * Coulomb:
        alpha                          2.000000
        third order                    shell-resolved
        anisotropic                    true
        a3                             3.000000
        a5                             4.000000
        cn-shift                       1.200000
        cn-exp                         4.000000
        max-rad                        5.000000


          ...................................................
          :                      SETUP                      :
          :.................................................:
          :  # basis functions                  36          :
          :  # atomic orbitals                  36          :
          :  # shells                           22          :
          :  # electrons                        38          :
          :  max. iterations                   250          :
          :  Hamiltonian                  GFN2-xTB          :
          :  restarted?                      false          :
          :  GBSA solvation                  false          :
          :  PC potential                    false          :
          :  electronic temp.          300.0000000     K    :
          :  accuracy                    1.0000000          :
          :  -> integral cutoff          0.2500000E+02      :
          :  -> integral neglect         0.1000000E-07      :
          :  -> SCF convergence          0.1000000E-05 Eh   :
          :  -> wf. convergence          0.1000000E-03 e    :
          :  Broyden damping             0.4000000          :
          :  net charge                          0          :
          :  unpaired electrons                  0          :
          ...................................................

 iter      E             dE          RMSdq      gap      omega  full diag
   1    -20.8422459 -0.208422E+02  0.298E+00    5.15       0.0  T
   2    -20.8921126 -0.498667E-01  0.225E+00    4.76       1.0  T
   3    -20.9011045 -0.899189E-02  0.124E+00    4.82       1.0  T
   4    -20.9010921  0.124394E-04  0.381E-01    4.76       1.0  T
   5    -20.9019980 -0.905882E-03  0.905E-02    4.71       1.0  T
   6    -20.9020097 -0.117652E-04  0.364E-02    4.70       1.0  T
   7    -20.9020136 -0.387385E-05  0.204E-02    4.71       1.3  T
   8    -20.9020148 -0.118660E-05  0.376E-03    4.71       6.9  T
   9    -20.9020149 -0.116997E-06  0.146E-03    4.71      17.6  T
  10    -20.9020149 -0.727956E-08  0.659E-04    4.71      39.2  T
  11    -20.9020149 -0.671726E-09  0.227E-04    4.71     113.9  T

   *** convergence criteria satisfied after 11 iterations ***

         #    Occupation            Energy/Eh            Energy/eV
      -------------------------------------------------------------
         1        2.0000           -0.6815753             -18.5466
       ...           ...                  ...                  ...
        13        2.0000           -0.4727245             -12.8635
        14        2.0000           -0.4668915             -12.7048
        15        2.0000           -0.4577747             -12.4567
        16        2.0000           -0.4392121             -11.9516
        17        2.0000           -0.3881484             -10.5621
        18        2.0000           -0.3812872             -10.3754
        19        2.0000           -0.3765371             -10.2461 (HOMO)
        20                         -0.2035644              -5.5393 (LUMO)
        21                         -0.1439475              -3.9170
        22                         -0.0087232              -0.2374
        23                          0.0911887               2.4814
        24                          0.1078003               2.9334
       ...                                ...                  ...
        36                          0.6651449              18.0995
      -------------------------------------------------------------
                  HL-Gap            0.1729727 Eh            4.7068 eV
             Fermi-level           -0.2900508 Eh           -7.8927 eV

 SCC (total)                   0 d,  0 h,  0 min,  6.033 sec
 SCC setup                      ...        0 min,  0.085 sec (  1.411%)
 Dispersion                     ...        0 min,  0.169 sec (  2.793%)
 classical contributions        ...        0 min,  0.179 sec (  2.962%)
 integral evaluation            ...        0 min,  0.227 sec (  3.767%)
 iterations                     ...        0 min,  4.770 sec ( 79.063%)
 molecular gradient             ...        0 min,  0.603 sec ( 10.000%)
 printout                       ...        0 min,  0.000 sec (  0.002%)

         :::::::::::::::::::::::::::::::::::::::::::::::::::::
         ::                     SUMMARY                     ::
         :::::::::::::::::::::::::::::::::::::::::::::::::::::
         :: total energy             -20.617092589143 Eh    ::
         :: gradient norm              0.054764075049 Eh/a0 ::
         :: HOMO-LUMO gap              4.706827277121 eV    ::
         ::.................................................::
         :: SCC energy               -20.902011329936 Eh    ::
         :: -> isotropic ES            0.010476533133 Eh    ::
         :: -> anisotropic ES          0.003453301322 Eh    ::
         :: -> anisotropic XC          0.018076718512 Eh    ::
         :: -> dispersion             -0.009698981704 Eh    ::
         :: repulsion energy           0.284918740794 Eh    ::
         :: add. restraining           0.000000000000 Eh    ::
         :: total charge               0.000000000000 e     ::
         :::::::::::::::::::::::::::::::::::::::::::::::::::::

      ----------------------------------------------------------- 
     |                   =====================                   |
     |                        A N C O P T                        |
     |                   =====================                   |
     |               Approximate Normal Coordinate               |
     |                Rational Function Optimizer                |
      ----------------------------------------------------------- 
      ----------------------------------------------------------- 
     |                   =====================                   |
     |                        A N C O P T                        |
     |                   =====================                   |
     |               Approximate Normal Coordinate               |
     |                Rational Function Optimizer                |
      ----------------------------------------------------------- 

          ...................................................
          :                      SETUP                      :
          :.................................................:
          :   optimization level            normal          :
          :   max. optcycles                   200          :
          :   ANC micro-cycles                  20          :
          :   degrees of freedom                39          :
          :.................................................:
          :   RF solver                   davidson          :
          :   write xtbopt.log                true          :
          :   linear?                        false          :
          :   energy convergence         0.5000000E-05 Eh   :
          :   grad. convergence          0.1000000E-02 Eh/α :
          :   maxmium RF displ.          1.0000000          :
          :   Hlow (freq-cutoff)         0.1000000E-01      :
          :   Hmax (freq-cutoff)         5.0000000          :
          :   S6 in model hess.         20.0000000          :
          ...................................................

generating ANC from exact Hessian ...
Using Lindh-Hessian (1995)
 Shifting diagonal of input Hessian by    5.1808887470893104E-003
 Lowest  eigenvalues of input Hessian
    0.000000    0.000000    0.000000    0.000000    0.000000    0.000000
    0.010000    0.013236    0.016464    0.018835    0.027303    0.036468
    0.038076    0.046645    0.065707    0.066416    0.074293    0.081803
 Highest eigenvalues
    1.168316    1.564678    1.833034    1.865644    2.050456    2.084319


........................................................................
.............................. CYCLE    1 ..............................
........................................................................

 iter      E             dE          RMSdq      gap      omega  full diag
   1    -20.9020149 -0.209020E+02  0.575E-05    4.71       0.0  T
   2    -20.9020149 -0.554223E-11  0.310E-05    4.71     831.8  T
   3    -20.9020149 -0.284217E-12  0.149E-05    4.71    1728.5  T
     SCC iter.                  ...        0 min,  1.154 sec
     gradient                   ...        0 min,  0.636 sec
 * total energy  :   -20.6170926 Eh     change       -0.2126761E-09 Eh
   gradient norm :     0.0547615 Eh/α   predicted     0.0000000E+00 (-100.00%)
   displ. norm   :     0.2199943 α      lambda       -0.7204330E-02
   maximum displ.:     0.1308387 α      in ANC's #10, #22, #9, ...

........................................................................
.............................. CYCLE    2 ..............................
........................................................................

 iter      E             dE          RMSdq      gap      omega  full diag
   1    -20.9215164 -0.209215E+02  0.258E-01    4.82       0.0  T
   2    -20.9216001 -0.836622E-04  0.152E-01    4.83       1.0  T
   3    -20.9215950  0.504560E-05  0.507E-02    4.83       1.0  T
   4    -20.9216130 -0.180122E-04  0.124E-02    4.83       2.1  T
   5    -20.9216137 -0.697232E-06  0.536E-03    4.83       4.8  T
   6    -20.9216137 -0.282128E-08  0.117E-03    4.83      22.0  T
   7    -20.9216137 -0.870221E-08  0.486E-04    4.83      53.1  T
   8    -20.9216137 -0.634024E-09  0.142E-04    4.83     181.7  T
     SCC iter.                  ...        0 min,  2.819 sec
     gradient                   ...        0 min,  0.621 sec
 * total energy  :   -20.6216854 Eh     change       -0.4592808E-02 Eh
   gradient norm :     0.0179441 Eh/α   predicted    -0.3776501E-02 ( -17.77%)
   displ. norm   :     0.1333592 α      lambda       -0.1130623E-02
   maximum displ.:     0.0620136 α      in ANC's #4, #6, #10, ...

........................................................................
.............................. CYCLE    3 ..............................
........................................................................

 iter      E             dE          RMSdq      gap      omega  full diag
   1    -20.9277569 -0.209278E+02  0.120E-01    4.85       0.0  T
   2    -20.9277704 -0.135588E-04  0.728E-02    4.84       1.0  T
   3    -20.9277679  0.251955E-05  0.234E-02    4.85       1.1  T
   4    -20.9277729 -0.502154E-05  0.516E-03    4.84       5.0  T
   5    -20.9277731 -0.141665E-06  0.211E-03    4.84      12.3  T
   6    -20.9277731  0.989189E-09  0.769E-04    4.84      33.6  T
   7    -20.9277731 -0.509430E-08  0.173E-04    4.84     149.6  T
     SCC iter.                  ...        0 min,  2.709 sec
     gradient                   ...        0 min,  0.648 sec
 * total energy  :   -20.6223332 Eh     change       -0.6478122E-03 Eh
   gradient norm :     0.0068977 Eh/α   predicted    -0.5753673E-03 ( -11.18%)
   displ. norm   :     0.0665305 α      lambda       -0.1483842E-03
   maximum displ.:     0.0492986 α      in ANC's #4, #6, #19, ...

........................................................................
.............................. CYCLE    4 ..............................
........................................................................

 iter      E             dE          RMSdq      gap      omega  full diag
   1    -20.9273896 -0.209274E+02  0.495E-02    4.84       0.0  T
   2    -20.9273906 -0.100674E-05  0.281E-02    4.84       1.0  T
   3    -20.9273902  0.389661E-06  0.893E-03    4.84       2.9  T
   4    -20.9273908 -0.584940E-06  0.150E-03    4.84      17.2  T
   5    -20.9273908 -0.127804E-07  0.582E-04    4.84      44.3  T
   6    -20.9273908  0.360778E-10  0.236E-04    4.84     109.6  T
     SCC iter.                  ...        0 min,  1.900 sec
     gradient                   ...        0 min,  0.612 sec
 * total energy  :   -20.6224364 Eh     change       -0.1032032E-03 Eh
   gradient norm :     0.0047951 Eh/α   predicted    -0.7451974E-04 ( -27.79%)
   displ. norm   :     0.0575626 α      lambda       -0.6384445E-04
   maximum displ.:     0.0435278 α      in ANC's #4, #3, #1, ...

........................................................................
.............................. CYCLE    5 ..............................
........................................................................

 iter      E             dE          RMSdq      gap      omega  full diag
   1    -20.9266649 -0.209267E+02  0.388E-02    4.84       0.0  T
   2    -20.9266662 -0.129800E-05  0.216E-02    4.84       1.2  T
   3    -20.9266659  0.254866E-06  0.914E-03    4.84       2.8  T
   4    -20.9266665 -0.563165E-06  0.107E-03    4.84      24.2  T
   5    -20.9266665 -0.306301E-08  0.512E-04    4.84      50.4  T
   6    -20.9266665 -0.215294E-10  0.198E-04    4.84     130.6  T
     SCC iter.                  ...        0 min,  1.852 sec
     gradient                   ...        0 min,  0.656 sec
 * total energy  :   -20.6224723 Eh     change       -0.3586215E-04 Eh
   gradient norm :     0.0015380 Eh/α   predicted    -0.3202850E-04 ( -10.69%)
   displ. norm   :     0.0292157 α      lambda       -0.7446035E-05
   maximum displ.:     0.0220900 α      in ANC's #3, #4, #5, ...

........................................................................
.............................. CYCLE    6 ..............................
........................................................................

 iter      E             dE          RMSdq      gap      omega  full diag
   1    -20.9266547 -0.209267E+02  0.131E-02    4.84       0.0  T
   2    -20.9266550 -0.270883E-06  0.799E-03    4.84       3.2  T
   3    -20.9266550 -0.190397E-08  0.361E-03    4.84       7.1  T
   4    -20.9266550 -0.755682E-07  0.393E-04    4.84      65.6  T
   5    -20.9266550 -0.360661E-09  0.201E-04    4.84     128.2  T
     SCC iter.                  ...        0 min,  1.576 sec
     gradient                   ...        0 min,  0.657 sec
 * total energy  :   -20.6224796 Eh     change       -0.7306731E-05 Eh
   gradient norm :     0.0009620 Eh/α   predicted    -0.3723810E-05 ( -49.04%)
   displ. norm   :     0.0529307 α      lambda       -0.8287720E-05
   maximum displ.:     0.0456206 α      in ANC's #3, #1, #2, ...

........................................................................
.............................. CYCLE    7 ..............................
........................................................................

 iter      E             dE          RMSdq      gap      omega  full diag
   1    -20.9267310 -0.209267E+02  0.207E-02    4.84       0.0  T
   2    -20.9267311 -0.956363E-07  0.123E-02    4.84       2.1  T
   3    -20.9267310  0.103343E-06  0.317E-03    4.84       8.2  T
   4    -20.9267311 -0.135470E-06  0.468E-04    4.84      55.1  T
   5    -20.9267311 -0.624144E-09  0.247E-04    4.84     104.5  T
     SCC iter.                  ...        0 min,  1.117 sec
     gradient                   ...        0 min,  0.564 sec
 * total energy  :   -20.6224898 Eh     change       -0.1019666E-04 Eh
   gradient norm :     0.0019705 Eh/α   predicted    -0.4150090E-05 ( -59.30%)
   displ. norm   :     0.0798720 α      lambda       -0.1219638E-04
   maximum displ.:     0.0668306 α      in ANC's #3, #1, #2, ...

........................................................................
.............................. CYCLE    8 ..............................
........................................................................

 iter      E             dE          RMSdq      gap      omega  full diag
   1    -20.9267593 -0.209268E+02  0.287E-02    4.84       0.0  T
   2    -20.9267594 -0.721428E-07  0.169E-02    4.84       1.5  T
   3    -20.9267594  0.558139E-07  0.280E-03    4.84       9.2  T
   4    -20.9267594 -0.843740E-07  0.694E-04    4.84      37.2  T
   5    -20.9267594 -0.685827E-09  0.256E-04    4.84     100.7  T
     SCC iter.                  ...        0 min,  1.396 sec
     gradient                   ...        0 min,  0.429 sec
 * total energy  :   -20.6225059 Eh     change       -0.1611194E-04 Eh
   gradient norm :     0.0019864 Eh/α   predicted    -0.6114231E-05 ( -62.05%)
   displ. norm   :     0.1313911 α      lambda       -0.1907038E-04
   maximum displ.:     0.1099867 α      in ANC's #3, #1, #2, ...

........................................................................
.............................. CYCLE    9 ..............................
........................................................................

 iter      E             dE          RMSdq      gap      omega  full diag
   1    -20.9264757 -0.209265E+02  0.458E-02    4.84       0.0  T
   2    -20.9264759 -0.180464E-06  0.272E-02    4.84       1.0  T
   3    -20.9264758  0.141815E-06  0.396E-03    4.84       6.5  T
   4    -20.9264760 -0.204265E-06  0.910E-04    4.84      28.4  T
   5    -20.9264760 -0.709871E-09  0.442E-04    4.84      58.5  T
     SCC iter.                  ...        0 min,  1.948 sec
     gradient                   ...        0 min,  0.507 sec
 * total energy  :   -20.6225307 Eh     change       -0.2477932E-04 Eh
   gradient norm :     0.0016419 Eh/α   predicted    -0.9607338E-05 ( -61.23%)
   displ. norm   :     0.1330318 α      lambda       -0.1957801E-04
   maximum displ.:     0.1128809 α      in ANC's #3, #1, #2, ...

........................................................................
.............................. CYCLE   10 ..............................
........................................................................

 iter      E             dE          RMSdq      gap      omega  full diag
   1    -20.9264147 -0.209264E+02  0.455E-02    4.84       0.0  T
   2    -20.9264149 -0.178344E-06  0.271E-02    4.84       1.0  T
   3    -20.9264148  0.119061E-06  0.349E-03    4.84       7.4  T
   4    -20.9264150 -0.177009E-06  0.825E-04    4.84      31.3  T
   5    -20.9264150 -0.321624E-09  0.351E-04    4.84      73.6  T
     SCC iter.                  ...        0 min,  1.291 sec
     gradient                   ...        0 min,  0.612 sec
 * total energy  :   -20.6225552 Eh     change       -0.2449606E-04 Eh
   gradient norm :     0.0016169 Eh/α   predicted    -0.9866530E-05 ( -59.72%)
   displ. norm   :     0.1495522 α      lambda       -0.1985689E-04
   maximum displ.:     0.1300644 α      in ANC's #3, #1, #2, ...

........................................................................
.............................. CYCLE   11 ..............................
........................................................................

 iter      E             dE          RMSdq      gap      omega  full diag
   1    -20.9262831 -0.209263E+02  0.521E-02    4.85       0.0  T
   2    -20.9262832 -0.117764E-06  0.309E-02    4.85       1.0  T
   3    -20.9262832 -0.507966E-08  0.196E-03    4.85      13.2  T
   4    -20.9262832 -0.382859E-07  0.887E-04    4.85      29.1  T
   5    -20.9262832 -0.109520E-08  0.261E-04    4.85      99.1  T
     SCC iter.                  ...        0 min,  1.714 sec
     gradient                   ...        0 min,  0.562 sec
 * total energy  :   -20.6225788 Eh     change       -0.2362349E-04 Eh
   gradient norm :     0.0021295 Eh/α   predicted    -0.1002642E-04 ( -57.56%)
   displ. norm   :     0.1525157 α      lambda       -0.2638680E-04
   maximum displ.:     0.1374616 α      in ANC's #3, #1, #2, ...

........................................................................
.............................. CYCLE   12 ..............................
........................................................................

 iter      E             dE          RMSdq      gap      omega  full diag
   1    -20.9262032 -0.209262E+02  0.550E-02    4.85       0.0  T
   2    -20.9262033 -0.108120E-06  0.326E-02    4.85       1.0  T
   3    -20.9262033 -0.344029E-07  0.155E-03    4.85      16.7  T
   4    -20.9262033 -0.794980E-08  0.873E-04    4.85      29.6  T
   5    -20.9262033 -0.177704E-08  0.282E-04    4.85      91.5  T
     SCC iter.                  ...        0 min,  2.445 sec
     gradient                   ...        0 min,  0.513 sec
 * total energy  :   -20.6225985 Eh     change       -0.1971610E-04 Eh
   gradient norm :     0.0024648 Eh/α   predicted    -0.1349904E-04 ( -31.53%)
   displ. norm   :     0.1536109 α      lambda       -0.2275169E-04
   maximum displ.:     0.1408626 α      in ANC's #3, #1, #5, ...

........................................................................
.............................. CYCLE   13 ..............................
........................................................................

 iter      E             dE          RMSdq      gap      omega  full diag
   1    -20.9262570 -0.209263E+02  0.569E-02    4.85       0.0  T
   2    -20.9262572 -0.119650E-06  0.336E-02    4.85       1.0  T
   3    -20.9262572 -0.366383E-07  0.166E-03    4.85      15.6  T
   4    -20.9262572 -0.105593E-07  0.918E-04    4.85      28.1  T
   5    -20.9262572 -0.173341E-08  0.236E-04    4.85     109.2  T
     SCC iter.                  ...        0 min,  1.155 sec
     gradient                   ...        0 min,  0.667 sec
 * total energy  :   -20.6226146 Eh     change       -0.1608353E-04 Eh
   gradient norm :     0.0023513 Eh/α   predicted    -0.1164315E-04 ( -27.61%)
   displ. norm   :     0.1098144 α      lambda       -0.1529740E-04
   maximum displ.:     0.1017331 α      in ANC's #3, #1, #22, ...

........................................................................
.............................. CYCLE   14 ..............................
........................................................................

 iter      E             dE          RMSdq      gap      omega  full diag
   1    -20.9267252 -0.209267E+02  0.416E-02    4.85       0.0  T
   2    -20.9267254 -0.106157E-06  0.245E-02    4.85       1.1  T
   3    -20.9267253  0.113244E-07  0.197E-03    4.85      13.1  T
   4    -20.9267254 -0.445032E-07  0.761E-04    4.85      33.9  T
   5    -20.9267254 -0.807415E-09  0.294E-04    4.85      87.8  T
     SCC iter.                  ...        0 min,  2.008 sec
     gradient                   ...        0 min,  0.502 sec
 * total energy  :   -20.6226253 Eh     change       -0.1072486E-04 Eh
   gradient norm :     0.0015621 Eh/α   predicted    -0.7740305E-05 ( -27.83%)
   displ. norm   :     0.4535255 α      lambda       -0.2224820E-04
   maximum displ.:     0.4134175 α      in ANC's #3, #1, #5, ...

........................................................................
.............................. CYCLE   15 ..............................
........................................................................

 iter      E             dE          RMSdq      gap      omega  full diag
   1    -20.9220055 -0.209220E+02  0.174E-01    4.84       0.0  T
   2    -20.9220113 -0.574012E-05  0.102E-01    4.84       1.0  T
   3    -20.9220113 -0.128456E-08  0.116E-02    4.84       2.2  T
   4    -20.9220120 -0.702079E-06  0.389E-03    4.84       6.6  T
   5    -20.9220120 -0.634102E-07  0.204E-03    4.84      12.7  T
   6    -20.9220120 -0.551548E-08  0.387E-04    4.84      66.7  T
   7    -20.9220120 -0.880991E-09  0.158E-04    4.84     163.3  T
     SCC iter.                  ...        0 min,  2.307 sec
     gradient                   ...        0 min,  0.689 sec
 * total energy  :   -20.6224653 Eh     change        0.1599930E-03 Eh
   gradient norm :     0.0109009 Eh/α   predicted    -0.1214257E-04 (-107.59%)
   displ. norm   :     0.2140475 α      lambda       -0.3299165E-03
   maximum displ.:     0.1931076 α      in ANC's #3, #1, #2, ...

........................................................................
.............................. CYCLE   16 ..............................
........................................................................

 iter      E             dE          RMSdq      gap      omega  full diag
   1    -20.9260856 -0.209261E+02  0.880E-02    4.85       0.0  T
   2    -20.9260884 -0.285463E-05  0.508E-02    4.85       1.0  T
   3    -20.9260884 -0.145262E-07  0.879E-03    4.85       2.9  T
   4    -20.9260887 -0.211019E-06  0.258E-03    4.85      10.0  T
   5    -20.9260887 -0.376445E-07  0.127E-03    4.85      20.3  T
   6    -20.9260887 -0.196658E-08  0.314E-04    4.85      82.4  T
   7    -20.9260887 -0.352152E-09  0.127E-04    4.85     203.1  T
     SCC iter.                  ...        0 min,  1.777 sec
     gradient                   ...        0 min,  0.443 sec
 * total energy  :   -20.6226325 Eh     change       -0.1671536E-03 Eh
   gradient norm :     0.0020954 Eh/α   predicted    -0.1725162E-03 (   3.21%)
   displ. norm   :     0.0165649 α      lambda       -0.1097912E-04
   maximum displ.:     0.0100267 α      in ANC's #2, #3, #22, ...

........................................................................
.............................. CYCLE   17 ..............................
........................................................................

 iter      E             dE          RMSdq      gap      omega  full diag
   1    -20.9267759 -0.209268E+02  0.102E-02    4.85       0.0  T
   2    -20.9267760 -0.103540E-06  0.569E-03    4.85       4.5  T
   3    -20.9267760  0.211840E-08  0.196E-03    4.85      13.1  T
   4    -20.9267761 -0.926129E-08  0.551E-04    4.85      46.8  T
   5    -20.9267761 -0.202891E-08  0.214E-04    4.85     120.8  T
     SCC iter.                  ...        0 min,  1.546 sec
     gradient                   ...        0 min,  0.578 sec
 * total energy  :   -20.6226391 Eh     change       -0.6598098E-05 Eh
   gradient norm :     0.0006909 Eh/α   predicted    -0.5491713E-05 ( -16.77%)
   displ. norm   :     0.0158420 α      lambda       -0.1720511E-05
   maximum displ.:     0.0100832 α      in ANC's #1, #3, #4, ...

........................................................................
.............................. CYCLE   18 ..............................
........................................................................

 iter      E             dE          RMSdq      gap      omega  full diag
   1    -20.9271533 -0.209272E+02  0.656E-03    4.85       0.0  T
   2    -20.9271533 -0.311181E-07  0.379E-03    4.85       6.8  T
   3    -20.9271533  0.441494E-08  0.121E-03    4.85      21.3  T
   4    -20.9271533 -0.866345E-08  0.254E-04    4.85     101.5  T
   5    -20.9271533 -0.329297E-09  0.111E-04    4.85     232.7  T
     SCC iter.                  ...        0 min,  2.053 sec
     gradient                   ...        0 min,  0.467 sec
 * total energy  :   -20.6226405 Eh     change       -0.1468866E-05 Eh
   gradient norm :     0.0005414 Eh/α   predicted    -0.8584352E-06 ( -41.56%)
   displ. norm   :     0.0235093 α      lambda       -0.1090162E-05
   maximum displ.:     0.0150832 α      in ANC's #1, #3, #2, ...

   *** GEOMETRY OPTIMIZATION CONVERGED AFTER 18 ITERATIONS ***

------------------------------------------------------------------------
 total energy gain   :        -0.0055480 Eh       -3.4814 kcal/mol
 total RMSD          :         0.3562192 a0        0.1885 Å
 total power (kW/mol):        -0.8092303 (step)   -0.2791 (real)
------------------------------------------------------------------------

 ANCopt (total)                0 d,  0 h,  0 min, 52.209 sec
 optimizer setup                ...        0 min,  0.012 sec (  0.023%)
 model hessian                  ...        0 min,  0.002 sec (  0.003%)
 ANC generation                 ...        0 min,  0.000 sec (  0.001%)
 coordinate transformation      ...        0 min,  0.000 sec (  0.000%)
 single point calculation       ...        0 min, 51.053 sec ( 97.786%)
 optimization log               ...        0 min,  0.001 sec (  0.003%)
 hessian update                 ...        0 min,  1.101 sec (  2.110%)
 rational function              ...        0 min,  0.002 sec (  0.005%)

================
 final structure:
================
15
 xtb: 6.7.1 (edcfbbe)
C           -2.40941582295932       -0.52586798724777       -0.27842239230695
C           -1.03526286978827       -0.03504047585363        0.01876179499400
C           -0.66591093898689        1.10062009667948        0.75884702299711
N            0.64597861179979        1.23545429595916        0.80517731127327
N            1.14535655650143        0.21814732370588        0.11421598360883
C            2.56201956779682        0.06307598592166       -0.03993963902625
C            0.17001745668459       -0.57396068116614       -0.37914466803251
H           -2.86425358075222        0.06986766895321       -1.07069912145757
H           -3.04074113541667       -0.44793070571538        0.60474004680368
H           -2.38109539925544       -1.56361041045077       -0.60274467840853
H           -1.30041789298551        1.80952159808290        1.25238859288632
H            2.84469959566307        0.11618744305282       -1.09324107923638
H            3.04341106727578        0.87320339139261        0.50346091598103
H            2.89295347851073       -0.89377919508101        0.36787825006971
H            0.39266130591203       -1.44588634823323       -0.96127834014568

 Bond Distances (Angstroems)
 ---------------------------
C1-C2=1.4891         C1-H8=1.0906         C1-H9=1.0884         C1-H10=1.0876        C2-C1=1.4891         C2-C3=1.4049         
C2-C7=1.3789         C3-C2=1.4049         C3-N4=1.3196         C3-H11=1.0718        N4-C3=1.3196         N4-N5=1.3273         
N5-N4=1.3273         N5-C6=1.4334         N5-C7=1.3499         C6-N5=1.4334         C6-H12=1.0919        C6-H13=1.0878        
C6-H14=1.0915        C7-C2=1.3789         C7-N5=1.3499         C7-H15=1.0718        H8-C1=1.0906         H9-C1=1.0884         
H10-C1=1.0876        H11-C3=1.0718        H12-C6=1.0919        H13-C6=1.0878        H14-C6=1.0915        H15-C7=1.0718        
 C  H  Rav=1.0852 sigma=0.0079  Rmin=1.0718  Rmax=1.0919     8
 C  C  Rav=1.4243 sigma=0.0470  Rmin=1.3789  Rmax=1.4891     3
 N  C  Rav=1.3676 sigma=0.0481  Rmin=1.3196  Rmax=1.4334     3
 N  N  Rav=1.3273 sigma=0.0000  Rmin=1.3273  Rmax=1.3273     1

 selected bond angles (degree)
 --------------------
H8-C1-C2=110.47                H9-C1-C2=110.47                H9-C1-H8=107.96                H10-C1-C2=110.49               
H10-C1-H8=108.39               H10-C1-H9=108.99               C3-C2-C1=127.89                C7-C2-C1=128.33                
C7-C2-C3=103.78                N4-C3-C2=111.25                H11-C3-C2=128.43               H11-C3-N4=120.32               
N5-N4-C3=106.11                C6-N5-N4=120.71                C7-N5-N4=111.60                C7-N5-C6=127.68                
H12-C6-N5=110.75               H13-C6-N5=107.64               H13-C6-H12=109.34              H14-C6-N5=110.75               
H14-C6-H12=108.94              H14-C6-H13=109.39              N5-C7-C2=107.26                H15-C7-C2=131.01               
H15-C7-N5=121.72               

 selected dihedral angles (degree)
 ---------------------------------
C3-C2-C1-H8= 77.18            C3-C2-C1-H9=317.79            C3-C2-C1-H10=197.11           C7-C2-C1-H8=258.11            
C7-C2-C1-H9=138.71            C7-C2-C1-H10= 18.03           N4-C3-C2-C1=180.70            N4-C3-C2-C7=359.95            
H11-C3-C2-C1=  0.88           H11-C3-C2-C7=180.13           N5-N4-C3-C2=  0.03            N5-N4-C3-H11=179.86           
C6-N5-N4-C3=179.81            C7-N5-N4-C3=  0.00            H12-C6-N5-N4=241.68           H12-C6-N5-C7= 61.46           
H13-C6-N5-N4=  1.16           H13-C6-N5-C7=180.93           H14-C6-N5-N4=120.70           H14-C6-N5-C7=300.48           
N5-C7-C2-C1=179.30            N5-C7-C2-C3=  0.05            H15-C7-C2-C1=359.06           H15-C7-C2-C3=179.81           
C2-C7-N5-N4=359.96            C2-C7-N5-C6=180.17            H15-C7-N5-N4=180.18           H15-C7-N5-C6=  0.38           
           -------------------------------------------------
          |                Final Singlepoint                |
           -------------------------------------------------

          ...................................................
          :                      SETUP                      :
          :.................................................:
          :  # basis functions                  36          :
          :  # atomic orbitals                  36          :
          :  # shells                           22          :
          :  # electrons                        38          :
          :  max. iterations                   250          :
          :  Hamiltonian                  GFN2-xTB          :
          :  restarted?                      false          :
          :  GBSA solvation                  false          :
          :  PC potential                    false          :
          :  electronic temp.          300.0000000     K    :
          :  accuracy                    1.0000000          :
          :  -> integral cutoff          0.2500000E+02      :
          :  -> integral neglect         0.1000000E-07      :
          :  -> SCF convergence          0.1000000E-05 Eh   :
          :  -> wf. convergence          0.1000000E-03 e    :
          :  Broyden damping             0.4000000          :
          :  net charge                          0          :
          :  unpaired electrons                  0          :
          ...................................................

 iter      E             dE          RMSdq      gap      omega  full diag
   1    -20.9271533 -0.209272E+02  0.411E-05    4.85       0.0  T
   2    -20.9271533 -0.817479E-11  0.248E-05    4.85    1040.2  T
   3    -20.9271533 -0.430944E-11  0.120E-05    4.85    2160.2  T

   *** convergence criteria satisfied after 3 iterations ***

         #    Occupation            Energy/Eh            Energy/eV
      -------------------------------------------------------------
         1        2.0000           -0.6818580             -18.5543
       ...           ...                  ...                  ...
        13        2.0000           -0.4728801             -12.8677
        14        2.0000           -0.4666594             -12.6984
        15        2.0000           -0.4596720             -12.5083
        16        2.0000           -0.4407716             -11.9940
        17        2.0000           -0.3906848             -10.6311
        18        2.0000           -0.3808922             -10.3646
        19        2.0000           -0.3789894             -10.3128 (HOMO)
        20                         -0.2007011              -5.4614 (LUMO)
        21                         -0.1464521              -3.9852
        22                          0.0146194               0.3978
        23                          0.1095804               2.9818
        24                          0.1260994               3.4313
       ...                                ...                  ...
        36                          0.6651767              18.1004
      -------------------------------------------------------------
                  HL-Gap            0.1782883 Eh            4.8515 eV
             Fermi-level           -0.2898453 Eh           -7.8871 eV

 SCC (total)                   0 d,  0 h,  0 min,  1.969 sec
 SCC setup                      ...        0 min,  0.018 sec (  0.901%)
 Dispersion                     ...        0 min,  0.125 sec (  6.373%)
 classical contributions        ...        0 min,  0.050 sec (  2.558%)
 integral evaluation            ...        0 min,  0.121 sec (  6.122%)
 iterations                     ...        0 min,  1.173 sec ( 59.565%)
 molecular gradient             ...        0 min,  0.482 sec ( 24.473%)
 printout                       ...        0 min,  0.000 sec (  0.007%)

         :::::::::::::::::::::::::::::::::::::::::::::::::::::
         ::                     SUMMARY                     ::
         :::::::::::::::::::::::::::::::::::::::::::::::::::::
         :: total energy             -20.622640541269 Eh    ::
         :: gradient norm              0.000542523958 Eh/a0 ::
         :: HOMO-LUMO gap              4.851470507527 eV    ::
         ::.................................................::
         :: SCC energy               -20.927150026787 Eh    ::
         :: -> isotropic ES            0.010144813844 Eh    ::
         :: -> anisotropic ES          0.002660938044 Eh    ::
         :: -> anisotropic XC          0.016858642038 Eh    ::
         :: -> dispersion             -0.009709132038 Eh    ::
         :: repulsion energy           0.304509485518 Eh    ::
         :: add. restraining           0.000000000000 Eh    ::
         :: total charge               0.000000000000 e     ::
         :::::::::::::::::::::::::::::::::::::::::::::::::::::

           -------------------------------------------------
          |                Property Printout                |
           -------------------------------------------------

    * Orbital Energies and Occupations

         #    Occupation            Energy/Eh            Energy/eV
      -------------------------------------------------------------
         1        2.0000           -0.6818580             -18.5543
       ...           ...                  ...                  ...
         7        2.0000           -0.5509555             -14.9923
         8        2.0000           -0.5499707             -14.9655
         9        2.0000           -0.5326086             -14.4930
        10        2.0000           -0.4967532             -13.5173
        11        2.0000           -0.4919544             -13.3868
        12        2.0000           -0.4844418             -13.1823
        13        2.0000           -0.4728801             -12.8677
        14        2.0000           -0.4666594             -12.6984
        15        2.0000           -0.4596720             -12.5083
        16        2.0000           -0.4407716             -11.9940
        17        2.0000           -0.3906848             -10.6311
        18        2.0000           -0.3808922             -10.3646
        19        2.0000           -0.3789894             -10.3128 (HOMO)
        20                         -0.2007011              -5.4614 (LUMO)
        21                         -0.1464521              -3.9852
        22                          0.0146194               0.3978
        23                          0.1095804               2.9818
        24                          0.1260994               3.4313
        25                          0.1407115               3.8290
        26                          0.1731076               4.7105
        27                          0.1848077               5.0289
        28                          0.1946654               5.2971
        29                          0.1976186               5.3775
        30                          0.2051171               5.5815
       ...                                ...                  ...
        36                          0.6651767              18.1004
      -------------------------------------------------------------
                  HL-Gap            0.1782883 Eh            4.8515 eV
             Fermi-level           -0.2898453 Eh           -7.8871 eV

     #   Z          covCN         q      C6AA      α(0)
     1   6 C        3.753    -0.101    22.496     6.763
     2   6 C        3.061    -0.027    28.623     8.773
     3   6 C        3.134     0.014    27.496     8.584
     4   7 N        2.008    -0.241    27.084     7.719
     5   7 N        3.039     0.084    19.774     6.604
     6   6 C        3.692    -0.062    21.874     6.692
     7   6 C        3.041    -0.033    28.770     8.798
     8   1 H        0.924     0.040     2.454     2.450
     9   1 H        0.925     0.040     2.448     2.447
    10   1 H        0.925     0.035     2.512     2.479
    11   1 H        0.926     0.026     2.649     2.545
    12   1 H        0.924     0.058     2.224     2.332
    13   1 H        0.925     0.083     1.948     2.183
    14   1 H        0.924     0.058     2.223     2.332
    15   1 H        0.926     0.027     2.635     2.538

 Mol. C6AA /au·bohr⁶  :       2237.910989
 Mol. C8AA /au·bohr⁸  :      50363.719663
 Mol. α(0) /au        :         73.238842


Wiberg/Mayer (AO) data.
largest (>0.10) Wiberg bond orders for each atom

 ---------------------------------------------------------------------------
     #   Z sym  total        # sym  WBO       # sym  WBO       # sym  WBO
 ---------------------------------------------------------------------------
     1   6 C    3.997 --     2 C    1.028    10 H    0.985     9 H    0.980
                             8 H    0.972
     2   6 C    3.980 --     7 C    1.483     3 C    1.346     1 C    1.028
     3   6 C    3.977 --     4 N    1.503     2 C    1.346    11 H    0.970
     4   7 N    2.966 --     3 C    1.503     5 N    1.212     7 C    0.158
     5   7 N    3.672 --     7 C    1.267     4 N    1.212     6 C    1.005
     6   6 C    3.971 --     5 N    1.005    13 H    0.979    14 H    0.975
                            12 H    0.974
     7   6 C    3.953 --     2 C    1.483     5 N    1.267    15 H    0.969
                             4 N    0.158
     8   1 H    0.998 --     1 C    0.972
     9   1 H    0.998 --     1 C    0.980
    10   1 H    0.999 --     1 C    0.985
    11   1 H    0.999 --     3 C    0.970
    12   1 H    0.996 --     6 C    0.974
    13   1 H    0.993 --     6 C    0.979
    14   1 H    0.996 --     6 C    0.975
    15   1 H    0.999 --     7 C    0.969
 ---------------------------------------------------------------------------
Note: The following floating-point exceptions are signalling: IEEE_UNDERFLOW_FLAG IEEE_DENORMAL
normal termination of xtb

Topologies differ in total number of bonds
Writing topology from bond orders to xtbtopo.mol

molecular dipole:
                 x           y           z       tot (Debye)
 q only:        0.537      -0.435      -0.311
   full:        0.349      -0.731      -0.508       2.430
molecular quadrupole (traceless):
                xx          xy          yy          xz          yz          zz
 q only:        5.859      -0.668      -3.245      -0.668      -0.661      -2.614
  q+dip:        5.852      -2.387      -3.263      -1.772      -0.565      -2.588
   full:        5.841      -2.354      -3.590      -1.727      -1.364      -2.252

           -------------------------------------------------
          |                Geometry Summary                 |
           -------------------------------------------------

      molecular mass/u    :       96.1306119
   center of mass at/Å    :        0.0844394       0.1998552       0.1334884
  moments of inertia/u·Å² :        0.6957606E+02   0.2482251E+03   0.3114872E+03
rotational constants/cm⁻¹ :        0.2422907E+00   0.6791269E-01   0.5411982E-01

 * 15 selected distances

     #   Z          #   Z                                           value/Å
     1   6 C        2   6 C                                       1.4891363 (max)
     2   6 C        3   6 C                                       1.4049457
     3   6 C        4   7 N                                       1.3196141
     4   7 N        5   7 N                                       1.3272979
     5   7 N        6   6 C                                       1.4334384
     2   6 C        7   6 C                                       1.3789364
     5   7 N        7   6 C                                       1.3498617
     1   6 C        8   1 H                                       1.0906333
     1   6 C        9   1 H                                       1.0884034
     1   6 C       10   1 H                                       1.0876105
     3   6 C       11   1 H                                       1.0717854
     6   6 C       12   1 H                                       1.0918667
     6   6 C       13   1 H                                       1.0878091
     6   6 C       14   1 H                                       1.0915149
     7   6 C       15   1 H                                       1.0717763 (min)

 * 4 distinct bonds (by element types)

   Z      Z             #   av. dist./Å        max./Å        min./Å
   1 H    6 C           8     1.0851749     1.0918667     1.0717763
   6 C    6 C           3     1.4243394     1.4891363     1.3789364
   6 C    7 N           3     1.3676380     1.4334384     1.3196141
   7 N    7 N           1     1.3272979     1.3272979     1.3272979


optimized geometry written to: xtbopt.xyz


           -------------------------------------------------
          | TOTAL ENERGY              -20.622640541269 Eh   |
          | GRADIENT NORM               0.000542523958 Eh/α |
          | HOMO-LUMO GAP               4.851470507527 eV   |
           -------------------------------------------------

------------------------------------------------------------------------
 * finished run on 2026/08/20 at 02:38:49.691     
------------------------------------------------------------------------
 total:
 * wall-time:     0 d,  0 h,  1 min,  0.824 sec
 *  cpu-time:     0 d,  0 h,  2 min, 13.943 sec
 * ratio c/w:     2.202 speedup
 SCF:
 * wall-time:     0 d,  0 h,  0 min,  6.033 sec
 *  cpu-time:     0 d,  0 h,  0 min, 10.952 sec
 * ratio c/w:     1.815 speedup
 ANC optimizer:
 * wall-time:     0 d,  0 h,  0 min, 54.207 sec
 *  cpu-time:     0 d,  0 h,  2 min,  1.989 sec
 * ratio c/w:     2.250 speedup

