      -----------------------------------------------------------      
     |                   =====================                   |     
     |                           x T B                           |     
     |                   =====================                   |     
     |                         S. Grimme                         |     
     |          Mulliken Center for Theoretical Chemistry        |     
     |                    University of Bonn                     |     
      -----------------------------------------------------------      

   * xtb version 6.7.1 (edcfbbe) compiled by 'conda@3ef47c1a292c' on 2024-11-25

   xtb is free software: you can redistribute it and/or modify it under
   the terms of the GNU Lesser General Public License as published by
   the Free Software Foundation, either version 3 of the License, or
   (at your option) any later version.
   
   xtb is distributed in the hope that it will be useful,
   but WITHOUT ANY WARRANTY; without even the implied warranty of
   MERCHANTABILITY or FITNESS FOR A PARTICULAR PURPOSE.  See the
   GNU Lesser General Public License for more details.
   
   Cite this work as:
   * C. Bannwarth, E. Caldeweyher, S. Ehlert, A. Hansen, P. Pracht,
     J. Seibert, S. Spicher, S. Grimme, WIREs Comput. Mol. Sci., 2020, 11,
     e01493. DOI: 10.1002/wcms.1493
   
   for GFN2-xTB:
   * C. Bannwarth, S. Ehlert and S. Grimme., J. Chem. Theory Comput., 2019,
     15, 1652-1671. DOI: 10.1021/acs.jctc.8b01176
   for GFN1-xTB:
   * S. Grimme, C. Bannwarth, P. Shushkov, J. Chem. Theory Comput., 2017,
     13, 1989-2009. DOI: 10.1021/acs.jctc.7b00118
   for GFN0-xTB:
   * P. Pracht, E. Caldeweyher, S. Ehlert, S. Grimme, ChemRxiv, 2019, preprint.
     DOI: 10.26434/chemrxiv.8326202.v1
   for GFN-FF:
   * S. Spicher and S. Grimme, Angew. Chem. Int. Ed., 2020, 59, 15665-15673.
     DOI: 10.1002/anie.202004239
   
   for ALPB and GBSA implicit solvation:
   * S. Ehlert, M. Stahn, S. Spicher, S. Grimme, J. Chem. Theory Comput.,
     2021, 17, 4250-4261. DOI: 10.1021/acs.jctc.1c00471
   
   for ddCOSMO and CPCM-X implicit solvation:
   * M. Stahn, S. Ehlert, S. Grimme, J. Phys. Chem. A,
     2023, XX, XXXX-XXXX. DOI: 10.1021/acs.jpca.3c04382
   
   for DFT-D4:
   * E. Caldeweyher, C. Bannwarth and S. Grimme, J. Chem. Phys., 2017,
     147, 034112. DOI: 10.1063/1.4993215
   * E. Caldeweyher, S. Ehlert, A. Hansen, H. Neugebauer, S. Spicher,
     C. Bannwarth and S. Grimme, J. Chem. Phys., 2019, 150, 154122.
     DOI: 10.1063/1.5090222
   * E. Caldeweyher, J.-M. Mewes, S. Ehlert and S. Grimme, Phys. Chem. Chem. Phys.
     2020, 22, 8499-8512. DOI: 10.1039/D0CP00502A
   
   for sTDA-xTB:
   * S. Grimme and C. Bannwarth, J. Chem. Phys., 2016, 145, 054103.
     DOI: 10.1063/1.4959605
   
   in the mass-spec context:
   * V. Asgeirsson, C. Bauer and S. Grimme, Chem. Sci., 2017, 8, 4879.
     DOI: 10.1039/c7sc00601b
   * J. Koopman and S. Grimme, ACS Omega 2019, 4, 12, 15120-15133.
     DOI: 10.1021/acsomega.9b02011
   
   for metadynamics refer to:
   * S. Grimme, J. Chem. Theory Comput., 2019, 155, 2847-2862
     DOI: 10.1021/acs.jctc.9b00143
   
   for SPH calculations refer to:
   * S. Spicher and S. Grimme, J. Chem. Theory Comput., 2021, 17, 1701-1714
     DOI: 10.1021/acs.jctc.0c01306
   
   for ONIOM refer to:
   * C. Plett, A. Katbashev, S. Ehlert, S. Grimme, M. Bursch,
     Phys. Chem. Chem. Phys., 2023, 25, 17860-17868. DOI: 10.1039/D3CP02178E
   
   for DIPRO refer to:
   * J. Kohn, N. Gildemeister, S. Grimme, D. Fazzi, A. Hansen,
     J. Chem. Phys., 2023, just accepted.
   
   for PTB refer to:
   * S. Grimme, M. Mueller, A. Hansen, J. Chem. Phys., 2023, 158, 124111.
     DOI: 10.1063/5.0137838
   
   with help from (in alphabetical order)
   P. Atkinson, C. Bannwarth, F. Bohle, G. Brandenburg, E. Caldeweyher
   M. Checinski, S. Dohm, S. Ehlert, S. Ehrlich, I. Gerasimov, C. Hölzer
   A. Katbashev, J. Kohn, J. Koopman, C. Lavigne, S. Lehtola, F. März, M. Müller,
   F. Musil, H. Neugebauer, J. Pisarek, C. Plett, P. Pracht, F. Pultar,
   J. Seibert, P. Shushkov, S. Spicher, M. Stahn, M. Steiner, T. Strunk,
   J. Stückrath, T. Rose, and J. Unsleber
   
 * started run on 2026/08/20 at 02:54:23.489     
   ID    Z sym.   atoms
    1    6 C      1-4, 7
    2    7 N      5, 6
    3   16 S      8
    4    8 O      9
    5    1 H      10-17

           -------------------------------------------------
          |                Calculation Setup                |
           -------------------------------------------------

          program call               : xtb ../../structures/pathway_A_substrate.xyz --gfn 2 --namespace sub_sp
          calculation namespace      : sub_sp
          coordinate file            : ../../structures/pathway_A_substrate.xyz
          omp threads                :                    16


           -------------------------------------------------
          |                 G F N 2 - x T B                 |
           -------------------------------------------------

        Reference                      10.1021/acs.jctc.8b01176
      * Hamiltonian:
        H0-scaling (s, p, d)           1.850000    2.230000    2.230000
        zeta-weighting                 0.500000
      * Dispersion:
        s8                             2.700000
        a1                             0.520000
        a2                             5.000000
        s9                             5.000000
      * Repulsion:
        kExp                           1.500000    1.000000
        rExp                           1.000000
      * Coulomb:
        alpha                          2.000000
        third order                    shell-resolved
        anisotropic                    true
        a3                             3.000000
        a5                             4.000000
        cn-shift                       1.200000
        cn-exp                         4.000000
        max-rad                        5.000000


          ...................................................
          :                      SETUP                      :
          :.................................................:
          :  # basis functions                  50          :
          :  # atomic orbitals                  49          :
          :  # shells                           27          :
          :  # electrons                        50          :
          :  max. iterations                   250          :
          :  Hamiltonian                  GFN2-xTB          :
          :  restarted?                      false          :
          :  GBSA solvation                  false          :
          :  PC potential                    false          :
          :  electronic temp.          300.0000000     K    :
          :  accuracy                    1.0000000          :
          :  -> integral cutoff          0.2500000E+02      :
          :  -> integral neglect         0.1000000E-07      :
          :  -> SCF convergence          0.1000000E-05 Eh   :
          :  -> wf. convergence          0.1000000E-03 e    :
          :  Broyden damping             0.4000000          :
          :  net charge                          0          :
          :  unpaired electrons                  0          :
          ...................................................

 iter      E             dE          RMSdq      gap      omega  full diag
   1    -28.1490619 -0.281491E+02  0.474E+00    2.89       0.0  T
   2    -28.1916757 -0.426138E-01  0.352E+00    2.97       1.0  T
   3    -28.2019601 -0.102844E-01  0.164E+00    2.80       1.0  T
   4    -28.2102567 -0.829654E-02  0.694E-01    2.84       1.0  T
   5    -28.2129171 -0.266044E-02  0.286E-01    2.81       1.0  T
   6    -28.2126176  0.299475E-03  0.182E-01    2.82       1.0  T
   7    -28.2130797 -0.462054E-03  0.328E-02    2.81       1.0  T
   8    -28.2130804 -0.678337E-06  0.166E-02    2.81       1.5  T
   9    -28.2130808 -0.454626E-06  0.378E-03    2.81       6.4  T
  10    -28.2130809 -0.219576E-07  0.202E-03    2.81      12.0  T
  11    -28.2130809 -0.481439E-08  0.666E-04    2.81      36.4  T
  12    -28.2130809 -0.112315E-08  0.190E-04    2.81     127.7  T

   *** convergence criteria satisfied after 12 iterations ***

         #    Occupation            Energy/Eh            Energy/eV
      -------------------------------------------------------------
         1        2.0000           -0.7605787             -20.6964
       ...           ...                  ...                  ...
        19        2.0000           -0.4765298             -12.9670
        20        2.0000           -0.4675259             -12.7220
        21        2.0000           -0.4446249             -12.0989
        22        2.0000           -0.4344520             -11.8220
        23        2.0000           -0.3935234             -10.7083
        24        2.0000           -0.3821148             -10.3979
        25        2.0000           -0.3696614             -10.0590 (HOMO)
        26                         -0.2662364              -7.2447 (LUMO)
        27                         -0.2193605              -5.9691
        28                         -0.1774275              -4.8280
        29                         -0.1406639              -3.8277
        30                         -0.0638265              -1.7368
       ...                                ...                  ...
        49                          0.9355840              25.4585
      -------------------------------------------------------------
                  HL-Gap            0.1034250 Eh            2.8143 eV
             Fermi-level           -0.3179489 Eh           -8.6518 eV

 SCC (total)                   0 d,  0 h,  0 min,  2.044 sec
 SCC setup                      ...        0 min,  0.024 sec (  1.167%)
 Dispersion                     ...        0 min,  0.067 sec (  3.270%)
 classical contributions        ...        0 min,  0.033 sec (  1.595%)
 integral evaluation            ...        0 min,  0.079 sec (  3.845%)
 iterations                     ...        0 min,  1.752 sec ( 85.703%)
 molecular gradient             ...        0 min,  0.090 sec (  4.412%)
 printout                       ...        0 min,  0.000 sec (  0.006%)

         :::::::::::::::::::::::::::::::::::::::::::::::::::::
         ::                     SUMMARY                     ::
         :::::::::::::::::::::::::::::::::::::::::::::::::::::
         :: total energy             -27.889160547093 Eh    ::
         :: gradient norm              0.000244418162 Eh/a0 ::
         :: HOMO-LUMO gap              2.814337747272 eV    ::
         ::.................................................::
         :: SCC energy               -28.213039289823 Eh    ::
         :: -> isotropic ES            0.043004281374 Eh    ::
         :: -> anisotropic ES          0.000501479607 Eh    ::
         :: -> anisotropic XC          0.016676340844 Eh    ::
         :: -> dispersion             -0.015132781972 Eh    ::
         :: repulsion energy           0.323878742730 Eh    ::
         :: add. restraining           0.000000000000 Eh    ::
         :: total charge              -0.000000000000 e     ::
         :::::::::::::::::::::::::::::::::::::::::::::::::::::

           -------------------------------------------------
          |                Property Printout                |
           -------------------------------------------------

    * Orbital Energies and Occupations

         #    Occupation            Energy/Eh            Energy/eV
      -------------------------------------------------------------
         1        2.0000           -0.7605787             -20.6964
       ...           ...                  ...                  ...
        13        2.0000           -0.5095722             -13.8662
        14        2.0000           -0.5081318             -13.8270
        15        2.0000           -0.4951742             -13.4744
        16        2.0000           -0.4897847             -13.3277
        17        2.0000           -0.4857740             -13.2186
        18        2.0000           -0.4831076             -13.1460
        19        2.0000           -0.4765298             -12.9670
        20        2.0000           -0.4675259             -12.7220
        21        2.0000           -0.4446249             -12.0989
        22        2.0000           -0.4344520             -11.8220
        23        2.0000           -0.3935234             -10.7083
        24        2.0000           -0.3821148             -10.3979
        25        2.0000           -0.3696614             -10.0590 (HOMO)
        26                         -0.2662364              -7.2447 (LUMO)
        27                         -0.2193605              -5.9691
        28                         -0.1774275              -4.8280
        29                         -0.1406639              -3.8277
        30                         -0.0638265              -1.7368
        31                         -0.0249625              -0.6793
        32                          0.0491455               1.3373
        33                          0.0902455               2.4557
        34                          0.0994967               2.7074
        35                          0.1291526               3.5144
        36                          0.1402843               3.8173
       ...                                ...                  ...
        49                          0.9355840              25.4585
      -------------------------------------------------------------
                  HL-Gap            0.1034250 Eh            2.8143 eV
             Fermi-level           -0.3179489 Eh           -8.6518 eV

     #   Z          covCN         q      C6AA      α(0)
     1   6 C        3.802    -0.111    22.626     6.772
     2   6 C        2.937    -0.030    28.755     8.795
     3   6 C        2.921    -0.045    29.128     8.851
     4   6 C        2.862     0.019    27.587     8.609
     5   7 N        1.922    -0.145    24.920     7.402
     6   7 N        2.834    -0.065    22.500     7.045
     7   6 C        3.777    -0.053    21.559     6.615
     8  16 S        2.907     0.468   123.436    18.699
     9   8 O        0.860    -0.489    23.548     6.506
    10   1 H        0.925     0.052     2.295     2.369
    11   1 H        0.924     0.068     2.103     2.268
    12   1 H        0.924     0.052     2.301     2.372
    13   1 H        0.925     0.042     2.428     2.437
    14   1 H        0.926     0.043     2.405     2.425
    15   1 H        0.924     0.053     2.279     2.361
    16   1 H        0.924     0.064     2.154     2.295
    17   1 H        0.925     0.080     1.983     2.202

 Mol. C6AA /au·bohr⁶  :       3958.752266
 Mol. C8AA /au·bohr⁸  :     104141.723404
 Mol. α(0) /au        :         98.023222


Wiberg/Mayer (AO) data.
largest (>0.10) Wiberg bond orders for each atom

 ---------------------------------------------------------------------------
     #   Z sym  total        # sym  WBO       # sym  WBO       # sym  WBO
 ---------------------------------------------------------------------------
     1   6 C    3.995 --     2 C    1.035    10 H    0.979    12 H    0.966
                            11 H    0.963
     2   6 C    3.975 --     3 C    1.748     1 C    1.035     8 S    0.944
     3   6 C    3.992 --     2 C    1.748     4 C    1.157    13 H    0.955
     4   6 C    3.979 --     5 N    1.640     3 C    1.157    14 H    0.961
                             6 N    0.144
     5   7 N    3.118 --     4 C    1.640     6 N    1.221
     6   7 N    3.495 --     5 N    1.221     7 C    0.996     8 S    0.934
                             4 C    0.144
     7   6 C    3.968 --     6 N    0.996    17 H    0.977    15 H    0.977
                            16 H    0.973
     8  16 S    3.914 --     9 O    1.837     2 C    0.944     6 N    0.934
     9   8 O    2.053 --     8 S    1.837
    10   1 H    0.997 --     1 C    0.979
    11   1 H    0.995 --     1 C    0.963
    12   1 H    0.997 --     1 C    0.966
    13   1 H    0.998 --     3 C    0.955
    14   1 H    0.998 --     4 C    0.961
    15   1 H    0.997 --     7 C    0.977
    16   1 H    0.996 --     7 C    0.973
    17   1 H    0.993 --     7 C    0.977
 ---------------------------------------------------------------------------

Topologies differ in total number of bonds
Writing topology from bond orders to xtbtopo.mol
Note: The following floating-point exceptions are signalling: IEEE_DENORMAL
normal termination of xtb

molecular dipole:
                 x           y           z       tot (Debye)
 q only:        0.105       0.308      -1.169
   full:       -0.279       0.339      -0.996       2.768
molecular quadrupole (traceless):
                xx          xy          yy          xz          yz          zz
 q only:        9.040       0.282      -3.710       0.012       6.273      -5.330
  q+dip:        9.187      -1.070      -4.137      -0.122       6.281      -5.050
   full:        9.402      -0.942      -4.966      -0.051       5.958      -4.436


           -------------------------------------------------
          | TOTAL ENERGY              -27.889160547093 Eh   |
          | GRADIENT NORM               0.000244418162 Eh/α |
          | HOMO-LUMO GAP               2.814337747272 eV   |
           -------------------------------------------------

------------------------------------------------------------------------
 * finished run on 2026/08/20 at 02:54:25.796     
------------------------------------------------------------------------
 total:
 * wall-time:     0 d,  0 h,  0 min,  2.307 sec
 *  cpu-time:     0 d,  0 h,  0 min, 13.822 sec
 * ratio c/w:     5.991 speedup
 SCF:
 * wall-time:     0 d,  0 h,  0 min,  2.044 sec
 *  cpu-time:     0 d,  0 h,  0 min, 12.771 sec
 * ratio c/w:     6.249 speedup

