17
 energy: -27.889160547186 gnorm: 0.000245368589 xtb: 6.7.1 (edcfbbe)
C           -2.27713600325639       -1.27288052117208       -0.33452190869821
C           -1.17728001693156       -0.29756434458574       -0.10131569634901
C           -1.31896254822926        1.02420926144435        0.03960441054248
C           -0.22113652944933        1.91068849090215        0.29316261939466
N            1.00675838970348        1.55426423078903        0.39739744976861
N            1.38703764323859        0.31330582584412        0.21874400227275
C            2.78222293842907        0.02440975530950        0.45135178688029
S            0.41705948642434       -1.15218520314573        0.08364775273993
O            0.34959325263843       -1.79807067755880        1.39050119748336
H           -3.24613926364830       -0.77941004238966       -0.36507862541504
H           -2.28023402658577       -2.01377824645588        0.46523636360181
H           -2.11695092657127       -1.80332591449617       -1.27427592464034
H           -2.30477246867705        1.46711397803961       -0.02721479288435
H           -0.40549839752391        2.96456262714140        0.42896872015335
H            3.18225672685843       -0.54375086260386       -0.38995084531902
H            2.90353067632051       -0.56219716862215        1.36534009782874
H            3.31965006726012        0.96460881156001        0.55168539264058
