17

C     -2.295044   -1.281312   -0.474415
C     -1.174642   -0.392668   -0.029473
C     -1.335594    0.934776   -0.003203
C     -0.265648    1.884294    0.371046
N      0.983789    1.547294    0.503959
N      1.457039    0.231569    0.368042
C      2.889893   -0.019985    0.380772
S      0.354122   -1.119538    0.494175
O      0.171885   -1.287668    1.996424
H     -3.177896   -1.133689    0.182955
H     -1.991659   -2.348120   -0.424788
H     -2.573315   -1.040860   -1.522271
H     -2.295934    1.355389   -0.277272
H     -0.531467    2.927318    0.478011
H      3.130639   -0.865810   -0.296876
H      3.213645   -0.271197    1.412235
H      3.440186    0.880207    0.033961
