      -----------------------------------------------------------      
     |                   =====================                   |     
     |                           x T B                           |     
     |                   =====================                   |     
     |                         S. Grimme                         |     
     |          Mulliken Center for Theoretical Chemistry        |     
     |                    University of Bonn                     |     
      -----------------------------------------------------------      

   * xtb version 6.7.1 (edcfbbe) compiled by 'conda@3ef47c1a292c' on 2024-11-25

   xtb is free software: you can redistribute it and/or modify it under
   the terms of the GNU Lesser General Public License as published by
   the Free Software Foundation, either version 3 of the License, or
   (at your option) any later version.
   
   xtb is distributed in the hope that it will be useful,
   but WITHOUT ANY WARRANTY; without even the implied warranty of
   MERCHANTABILITY or FITNESS FOR A PARTICULAR PURPOSE.  See the
   GNU Lesser General Public License for more details.
   
   Cite this work as:
   * C. Bannwarth, E. Caldeweyher, S. Ehlert, A. Hansen, P. Pracht,
     J. Seibert, S. Spicher, S. Grimme, WIREs Comput. Mol. Sci., 2020, 11,
     e01493. DOI: 10.1002/wcms.1493
   
   for GFN2-xTB:
   * C. Bannwarth, S. Ehlert and S. Grimme., J. Chem. Theory Comput., 2019,
     15, 1652-1671. DOI: 10.1021/acs.jctc.8b01176
   for GFN1-xTB:
   * S. Grimme, C. Bannwarth, P. Shushkov, J. Chem. Theory Comput., 2017,
     13, 1989-2009. DOI: 10.1021/acs.jctc.7b00118
   for GFN0-xTB:
   * P. Pracht, E. Caldeweyher, S. Ehlert, S. Grimme, ChemRxiv, 2019, preprint.
     DOI: 10.26434/chemrxiv.8326202.v1
   for GFN-FF:
   * S. Spicher and S. Grimme, Angew. Chem. Int. Ed., 2020, 59, 15665-15673.
     DOI: 10.1002/anie.202004239
   
   for ALPB and GBSA implicit solvation:
   * S. Ehlert, M. Stahn, S. Spicher, S. Grimme, J. Chem. Theory Comput.,
     2021, 17, 4250-4261. DOI: 10.1021/acs.jctc.1c00471
   
   for ddCOSMO and CPCM-X implicit solvation:
   * M. Stahn, S. Ehlert, S. Grimme, J. Phys. Chem. A,
     2023, XX, XXXX-XXXX. DOI: 10.1021/acs.jpca.3c04382
   
   for DFT-D4:
   * E. Caldeweyher, C. Bannwarth and S. Grimme, J. Chem. Phys., 2017,
     147, 034112. DOI: 10.1063/1.4993215
   * E. Caldeweyher, S. Ehlert, A. Hansen, H. Neugebauer, S. Spicher,
     C. Bannwarth and S. Grimme, J. Chem. Phys., 2019, 150, 154122.
     DOI: 10.1063/1.5090222
   * E. Caldeweyher, J.-M. Mewes, S. Ehlert and S. Grimme, Phys. Chem. Chem. Phys.
     2020, 22, 8499-8512. DOI: 10.1039/D0CP00502A
   
   for sTDA-xTB:
   * S. Grimme and C. Bannwarth, J. Chem. Phys., 2016, 145, 054103.
     DOI: 10.1063/1.4959605
   
   in the mass-spec context:
   * V. Asgeirsson, C. Bauer and S. Grimme, Chem. Sci., 2017, 8, 4879.
     DOI: 10.1039/c7sc00601b
   * J. Koopman and S. Grimme, ACS Omega 2019, 4, 12, 15120-15133.
     DOI: 10.1021/acsomega.9b02011
   
   for metadynamics refer to:
   * S. Grimme, J. Chem. Theory Comput., 2019, 155, 2847-2862
     DOI: 10.1021/acs.jctc.9b00143
   
   for SPH calculations refer to:
   * S. Spicher and S. Grimme, J. Chem. Theory Comput., 2021, 17, 1701-1714
     DOI: 10.1021/acs.jctc.0c01306
   
   for ONIOM refer to:
   * C. Plett, A. Katbashev, S. Ehlert, S. Grimme, M. Bursch,
     Phys. Chem. Chem. Phys., 2023, 25, 17860-17868. DOI: 10.1039/D3CP02178E
   
   for DIPRO refer to:
   * J. Kohn, N. Gildemeister, S. Grimme, D. Fazzi, A. Hansen,
     J. Chem. Phys., 2023, just accepted.
   
   for PTB refer to:
   * S. Grimme, M. Mueller, A. Hansen, J. Chem. Phys., 2023, 158, 124111.
     DOI: 10.1063/5.0137838
   
   with help from (in alphabetical order)
   P. Atkinson, C. Bannwarth, F. Bohle, G. Brandenburg, E. Caldeweyher
   M. Checinski, S. Dohm, S. Ehlert, S. Ehrlich, I. Gerasimov, C. Hölzer
   A. Katbashev, J. Kohn, J. Koopman, C. Lavigne, S. Lehtola, F. März, M. Müller,
   F. Musil, H. Neugebauer, J. Pisarek, C. Plett, P. Pracht, F. Pultar,
   J. Seibert, P. Shushkov, S. Spicher, M. Stahn, M. Steiner, T. Strunk,
   J. Stückrath, T. Rose, and J. Unsleber
   
 * started run on 2026/08/20 at 02:24:09.219     
   ID    Z sym.   atoms
    1    6 C      1-4, 7
    2    7 N      5, 6
    3   16 S      8
    4    8 O      9
    5    1 H      10-17

           -------------------------------------------------
          |                Calculation Setup                |
           -------------------------------------------------

          program call               : xtb substrate_seed.xyz --opt normal --gfn 2 --namespace subopt
          calculation namespace      : subopt
          coordinate file            : substrate_seed.xyz
          omp threads                :                    16


           -------------------------------------------------
          |                 G F N 2 - x T B                 |
           -------------------------------------------------

        Reference                      10.1021/acs.jctc.8b01176
      * Hamiltonian:
        H0-scaling (s, p, d)           1.850000    2.230000    2.230000
        zeta-weighting                 0.500000
      * Dispersion:
        s8                             2.700000
        a1                             0.520000
        a2                             5.000000
        s9                             5.000000
      * Repulsion:
        kExp                           1.500000    1.000000
        rExp                           1.000000
      * Coulomb:
        alpha                          2.000000
        third order                    shell-resolved
        anisotropic                    true
        a3                             3.000000
        a5                             4.000000
        cn-shift                       1.200000
        cn-exp                         4.000000
        max-rad                        5.000000

q/qsh data taken from xtbrestart
CAMM data taken from xtbrestart

          ...................................................
          :                      SETUP                      :
          :.................................................:
          :  # basis functions                  50          :
          :  # atomic orbitals                  49          :
          :  # shells                           27          :
          :  # electrons                        50          :
          :  max. iterations                   250          :
          :  Hamiltonian                  GFN2-xTB          :
          :  restarted?                       true          :
          :  GBSA solvation                  false          :
          :  PC potential                    false          :
          :  electronic temp.          300.0000000     K    :
          :  accuracy                    1.0000000          :
          :  -> integral cutoff          0.2500000E+02      :
          :  -> integral neglect         0.1000000E-07      :
          :  -> SCF convergence          0.1000000E-05 Eh   :
          :  -> wf. convergence          0.1000000E-03 e    :
          :  Broyden damping             0.4000000          :
          :  net charge                          0          :
          :  unpaired electrons                  0          :
          ...................................................

 iter      E             dE          RMSdq      gap      omega  full diag
   1    -28.1433081 -0.281433E+02  0.153E+00    2.71       0.0  T
   2    -28.1460437 -0.273556E-02  0.930E-01    2.53       1.0  T
   3    -28.1473236 -0.127986E-02  0.595E-01    2.64       1.0  T
   4    -28.1491678 -0.184424E-02  0.215E-01    2.57       1.0  T
   5    -28.1494047 -0.236921E-03  0.873E-02    2.58       1.0  T
   6    -28.1494019  0.278150E-05  0.552E-02    2.58       1.0  T
   7    -28.1494373 -0.353287E-04  0.108E-02    2.58       2.2  T
   8    -28.1494374 -0.167163E-06  0.655E-03    2.58       3.7  T
   9    -28.1494375 -0.805614E-07  0.187E-03    2.58      13.0  T
  10    -28.1494375 -0.400484E-08  0.713E-04    2.58      34.0  T
  11    -28.1494375 -0.721190E-09  0.307E-04    2.58      79.1  T

   *** convergence criteria satisfied after 11 iterations ***

         #    Occupation            Energy/Eh            Energy/eV
      -------------------------------------------------------------
         1        2.0000           -0.7574004             -20.6099
       ...           ...                  ...                  ...
        19        2.0000           -0.4738242             -12.8934
        20        2.0000           -0.4664381             -12.6924
        21        2.0000           -0.4377582             -11.9120
        22        2.0000           -0.4208204             -11.4511
        23        2.0000           -0.3913304             -10.6486
        24        2.0000           -0.3811260             -10.3710
        25        2.0000           -0.3727684             -10.1435 (HOMO)
        26                         -0.2780060              -7.5649 (LUMO)
        27                         -0.2186741              -5.9504
        28                         -0.1968846              -5.3575
        29                         -0.1524046              -4.1471
        30                         -0.0969122              -2.6371
       ...                                ...                  ...
        49                          0.7694035              20.9365
      -------------------------------------------------------------
                  HL-Gap            0.0947625 Eh            2.5786 eV
             Fermi-level           -0.3253872 Eh           -8.8542 eV

 SCC (total)                   0 d,  0 h,  0 min,  5.861 sec
 SCC setup                      ...        0 min,  0.030 sec (  0.511%)
 Dispersion                     ...        0 min,  0.147 sec (  2.505%)
 classical contributions        ...        0 min,  0.047 sec (  0.805%)
 integral evaluation            ...        0 min,  0.126 sec (  2.158%)
 iterations                     ...        0 min,  4.940 sec ( 84.285%)
 molecular gradient             ...        0 min,  0.570 sec (  9.733%)
 printout                       ...        0 min,  0.000 sec (  0.002%)

         :::::::::::::::::::::::::::::::::::::::::::::::::::::
         ::                     SUMMARY                     ::
         :::::::::::::::::::::::::::::::::::::::::::::::::::::
         :: total energy             -27.867209529048 Eh    ::
         :: gradient norm              0.123788017078 Eh/a0 ::
         :: HOMO-LUMO gap              2.578617770161 eV    ::
         ::.................................................::
         :: SCC energy               -28.149393477973 Eh    ::
         :: -> isotropic ES            0.051874294603 Eh    ::
         :: -> anisotropic ES          0.000616815202 Eh    ::
         :: -> anisotropic XC          0.018755531226 Eh    ::
         :: -> dispersion             -0.014954226435 Eh    ::
         :: repulsion energy           0.282183948925 Eh    ::
         :: add. restraining           0.000000000000 Eh    ::
         :: total charge              -0.000000000000 e     ::
         :::::::::::::::::::::::::::::::::::::::::::::::::::::

      ----------------------------------------------------------- 
     |                   =====================                   |
     |                        A N C O P T                        |
     |                   =====================                   |
     |               Approximate Normal Coordinate               |
     |                Rational Function Optimizer                |
      ----------------------------------------------------------- 
      ----------------------------------------------------------- 
     |                   =====================                   |
     |                        A N C O P T                        |
     |                   =====================                   |
     |               Approximate Normal Coordinate               |
     |                Rational Function Optimizer                |
      ----------------------------------------------------------- 

          ...................................................
          :                      SETUP                      :
          :.................................................:
          :   optimization level            normal          :
          :   max. optcycles                   200          :
          :   ANC micro-cycles                  20          :
          :   degrees of freedom                45          :
          :.................................................:
          :   RF solver                   davidson          :
          :   write xtbopt.log                true          :
          :   linear?                        false          :
          :   energy convergence         0.5000000E-05 Eh   :
          :   grad. convergence          0.1000000E-02 Eh/α :
          :   maxmium RF displ.          1.0000000          :
          :   Hlow (freq-cutoff)         0.1000000E-01      :
          :   Hmax (freq-cutoff)         5.0000000          :
          :   S6 in model hess.         20.0000000          :
          ...................................................

generating ANC from exact Hessian ...
Using Lindh-Hessian (1995)
 Shifting diagonal of input Hessian by    6.0944898357615535E-003
 Lowest  eigenvalues of input Hessian
    0.000000    0.000000    0.000000    0.000000    0.000000    0.000000
    0.010000    0.012630    0.014564    0.016105    0.017721    0.021885
    0.027914    0.031680    0.038381    0.050166    0.055638    0.066339
 Highest eigenvalues
    1.355863    1.436873    1.580398    1.875814    2.001194    2.113237


........................................................................
.............................. CYCLE    1 ..............................
........................................................................

 iter      E             dE          RMSdq      gap      omega  full diag
   1    -28.1494375 -0.281494E+02  0.924E-05    2.58       0.0  T
   2    -28.1494375 -0.741096E-11  0.505E-05    2.58     480.0  T
   3    -28.1494375  0.214939E-11  0.407E-05    2.58     596.4  T
     SCC iter.                  ...        0 min,  0.761 sec
     gradient                   ...        0 min,  0.483 sec
 * total energy  :   -27.8672095 Eh     change       -0.1007443E-09 Eh
   gradient norm :     0.1237905 Eh/α   predicted     0.0000000E+00 (-100.00%)
   displ. norm   :     0.3351194 α      lambda       -0.2078110E-01
   maximum displ.:     0.1681080 α      in ANC's #9, #26, #11, ...

........................................................................
.............................. CYCLE    2 ..............................
........................................................................

 iter      E             dE          RMSdq      gap      omega  full diag
   1    -28.1899326 -0.281899E+02  0.446E-01    2.65       0.0  T
   2    -28.1903071 -0.374506E-03  0.315E-01    2.72       1.0  T
   3    -28.1908014 -0.494322E-03  0.163E-01    2.69       1.0  T
   4    -28.1908735 -0.721235E-04  0.690E-02    2.70       1.0  T
   5    -28.1908994 -0.259257E-04  0.249E-02    2.70       1.0  T
   6    -28.1909031 -0.361298E-05  0.140E-02    2.70       1.7  T
   7    -28.1909044 -0.134663E-05  0.307E-03    2.70       7.9  T
   8    -28.1909044 -0.163539E-07  0.155E-03    2.70      15.6  T
   9    -28.1909044 -0.355100E-08  0.432E-04    2.70      56.2  T
  10    -28.1909044 -0.192269E-09  0.159E-04    2.70     152.6  T
     SCC iter.                  ...        0 min,  1.631 sec
     gradient                   ...        0 min,  0.337 sec
 * total energy  :   -27.8821433 Eh     change       -0.1493374E-01 Eh
   gradient norm :     0.0695262 Eh/α   predicted    -0.1155746E-01 ( -22.61%)
   displ. norm   :     0.3058692 α      lambda       -0.8399056E-02
   maximum displ.:     0.1569434 α      in ANC's #9, #6, #8, ...

........................................................................
.............................. CYCLE    3 ..............................
........................................................................

 iter      E             dE          RMSdq      gap      omega  full diag
   1    -28.2116075 -0.282116E+02  0.423E-01    2.71       0.0  T
   2    -28.2120519 -0.444402E-03  0.333E-01    2.79       1.0  T
   3    -28.2128978 -0.845960E-03  0.138E-01    2.76       1.0  T
   4    -28.2129018 -0.395528E-05  0.778E-02    2.77       1.0  T
   5    -28.2129320 -0.302029E-04  0.267E-02    2.77       1.0  T
   6    -28.2129389 -0.686104E-05  0.113E-02    2.77       2.1  T
   7    -28.2129394 -0.552105E-06  0.245E-03    2.76       9.9  T
   8    -28.2129394 -0.115298E-07  0.110E-03    2.77      22.0  T
   9    -28.2129394 -0.210326E-08  0.381E-04    2.77      63.7  T
  10    -28.2129394 -0.203269E-09  0.151E-04    2.77     160.6  T
     SCC iter.                  ...        0 min,  2.086 sec
     gradient                   ...        0 min,  0.346 sec
 * total energy  :   -27.8866768 Eh     change       -0.4533514E-02 Eh
   gradient norm :     0.0193961 Eh/α   predicted    -0.4592417E-02 (   1.30%)
   displ. norm   :     0.1555122 α      lambda       -0.7972569E-03
   maximum displ.:     0.0864817 α      in ANC's #6, #5, #4, ...

........................................................................
.............................. CYCLE    4 ..............................
........................................................................

 iter      E             dE          RMSdq      gap      omega  full diag
   1    -28.2108440 -0.282108E+02  0.127E-01    2.76       0.0  T
   2    -28.2108698 -0.258249E-04  0.703E-02    2.76       1.0  T
   3    -28.2108711 -0.122521E-05  0.340E-02    2.76       1.0  T
   4    -28.2108692  0.187333E-05  0.173E-02    2.76       1.4  T
   5    -28.2108728 -0.364765E-05  0.580E-03    2.76       4.2  T
   6    -28.2108729 -0.732399E-07  0.178E-03    2.76      13.7  T
   7    -28.2108729 -0.280854E-07  0.583E-04    2.76      41.6  T
   8    -28.2108729 -0.159465E-08  0.290E-04    2.76      83.7  T
     SCC iter.                  ...        0 min,  1.692 sec
     gradient                   ...        0 min,  0.340 sec
 * total energy  :   -27.8872289 Eh     change       -0.5520792E-03 Eh
   gradient norm :     0.0072219 Eh/α   predicted    -0.4082699E-03 ( -26.05%)
   displ. norm   :     0.1367791 α      lambda       -0.2782632E-03
   maximum displ.:     0.0841991 α      in ANC's #6, #4, #5, ...

........................................................................
.............................. CYCLE    5 ..............................
........................................................................

 iter      E             dE          RMSdq      gap      omega  full diag
   1    -28.2095244 -0.282095E+02  0.943E-02    2.77       0.0  T
   2    -28.2095343 -0.989873E-05  0.494E-02    2.76       1.0  T
   3    -28.2095345 -0.163747E-06  0.218E-02    2.77       1.1  T
   4    -28.2095348 -0.323897E-06  0.108E-02    2.76       2.3  T
   5    -28.2095358 -0.981171E-06  0.440E-03    2.77       5.5  T
   6    -28.2095359 -0.406384E-07  0.177E-03    2.77      13.7  T
   7    -28.2095359 -0.433601E-07  0.469E-04    2.77      51.7  T
   8    -28.2095359 -0.513772E-09  0.209E-04    2.77     116.2  T
     SCC iter.                  ...        0 min,  1.538 sec
     gradient                   ...        0 min,  0.247 sec
 * total energy  :   -27.8873883 Eh     change       -0.1594330E-03 Eh
   gradient norm :     0.0026041 Eh/α   predicted    -0.1417351E-03 ( -11.10%)
   displ. norm   :     0.0634711 α      lambda       -0.4415265E-04
   maximum displ.:     0.0398859 α      in ANC's #1, #6, #4, ...

........................................................................
.............................. CYCLE    6 ..............................
........................................................................

 iter      E             dE          RMSdq      gap      omega  full diag
   1    -28.2098637 -0.282099E+02  0.310E-02    2.77       0.0  T
   2    -28.2098640 -0.260153E-06  0.166E-02    2.77       1.5  T
   3    -28.2098630  0.969386E-06  0.927E-03    2.77       2.6  T
   4    -28.2098642 -0.120628E-05  0.296E-03    2.77       8.2  T
   5    -28.2098643 -0.166450E-07  0.107E-03    2.77      22.6  T
   6    -28.2098643 -0.668821E-08  0.394E-04    2.77      61.5  T
   7    -28.2098643 -0.133116E-08  0.163E-04    2.77     149.1  T
     SCC iter.                  ...        0 min,  1.066 sec
     gradient                   ...        0 min,  0.238 sec
 * total energy  :   -27.8874246 Eh     change       -0.3631558E-04 Eh
   gradient norm :     0.0022058 Eh/α   predicted    -0.2216297E-04 ( -38.97%)
   displ. norm   :     0.1273919 α      lambda       -0.7163892E-04
   maximum displ.:     0.0936405 α      in ANC's #1, #6, #4, ...

........................................................................
.............................. CYCLE    7 ..............................
........................................................................

 iter      E             dE          RMSdq      gap      omega  full diag
   1    -28.2106275 -0.282106E+02  0.532E-02    2.78       0.0  T
   2    -28.2106286 -0.112131E-05  0.299E-02    2.78       1.0  T
   3    -28.2106258  0.283311E-05  0.168E-02    2.78       1.4  T
   4    -28.2106296 -0.376703E-05  0.523E-03    2.78       4.6  T
   5    -28.2106296 -0.501468E-07  0.283E-03    2.78       8.6  T
   6    -28.2106296 -0.378523E-07  0.101E-03    2.78      24.1  T
   7    -28.2106297 -0.107555E-07  0.339E-04    2.78      71.6  T
   8    -28.2106297 -0.736939E-10  0.108E-04    2.78     224.0  T
     SCC iter.                  ...        0 min,  1.194 sec
     gradient                   ...        0 min,  0.346 sec
 * total energy  :   -27.8874787 Eh     change       -0.5405993E-04 Eh
   gradient norm :     0.0021074 Eh/α   predicted    -0.3639999E-04 ( -32.67%)
   displ. norm   :     0.1211913 α      lambda       -0.4972386E-04
   maximum displ.:     0.0974445 α      in ANC's #1, #6, #4, ...

........................................................................
.............................. CYCLE    8 ..............................
........................................................................

 iter      E             dE          RMSdq      gap      omega  full diag
   1    -28.2109948 -0.282110E+02  0.461E-02    2.79       0.0  T
   2    -28.2109957 -0.917861E-06  0.259E-02    2.79       1.0  T
   3    -28.2109940  0.174905E-05  0.145E-02    2.79       1.7  T
   4    -28.2109965 -0.250794E-05  0.414E-03    2.79       5.9  T
   5    -28.2109965 -0.160313E-08  0.248E-03    2.79       9.8  T
   6    -28.2109965 -0.440410E-07  0.848E-04    2.79      28.6  T
   7    -28.2109965 -0.683835E-08  0.326E-04    2.79      74.3  T
     SCC iter.                  ...        0 min,  1.129 sec
     gradient                   ...        0 min,  0.247 sec
 * total energy  :   -27.8875208 Eh     change       -0.4216889E-04 Eh
   gradient norm :     0.0031163 Eh/α   predicted    -0.2522745E-04 ( -40.18%)
   displ. norm   :     0.1149465 α      lambda       -0.4956919E-04
   maximum displ.:     0.0926006 α      in ANC's #1, #6, #3, ...

........................................................................
.............................. CYCLE    9 ..............................
........................................................................

 iter      E             dE          RMSdq      gap      omega  full diag
   1    -28.2111141 -0.282111E+02  0.412E-02    2.79       0.0  T
   2    -28.2111148 -0.665074E-06  0.229E-02    2.79       1.1  T
   3    -28.2111134  0.133036E-05  0.127E-02    2.79       1.9  T
   4    -28.2111153 -0.190071E-05  0.324E-03    2.79       7.5  T
   5    -28.2111153  0.137379E-07  0.173E-03    2.79      14.0  T
   6    -28.2111153 -0.281114E-07  0.554E-04    2.79      43.8  T
   7    -28.2111153 -0.147517E-08  0.291E-04    2.79      83.2  T
     SCC iter.                  ...        0 min,  0.922 sec
     gradient                   ...        0 min,  0.230 sec
 * total energy  :   -27.8875665 Eh     change       -0.4563716E-04 Eh
   gradient norm :     0.0032719 Eh/α   predicted    -0.2511166E-04 ( -44.98%)
   displ. norm   :     0.1724285 α      lambda       -0.7545068E-04
   maximum displ.:     0.1324324 α      in ANC's #1, #3, #2, ...

........................................................................
.............................. CYCLE   10 ..............................
........................................................................

 iter      E             dE          RMSdq      gap      omega  full diag
   1    -28.2108137 -0.282108E+02  0.616E-02    2.79       0.0  T
   2    -28.2108154 -0.171389E-05  0.342E-02    2.79       1.0  T
   3    -28.2108137  0.177622E-05  0.157E-02    2.79       1.5  T
   4    -28.2108161 -0.243100E-05  0.568E-03    2.79       4.3  T
   5    -28.2108163 -0.158042E-06  0.284E-03    2.79       8.5  T
   6    -28.2108163 -0.128448E-07  0.142E-03    2.79      17.1  T
   7    -28.2108163 -0.211499E-07  0.494E-04    2.79      49.1  T
   8    -28.2108163 -0.404714E-09  0.136E-04    2.79     178.4  T
     SCC iter.                  ...        0 min,  1.122 sec
     gradient                   ...        0 min,  0.211 sec
 * total energy  :   -27.8876348 Eh     change       -0.6829283E-04 Eh
   gradient norm :     0.0030154 Eh/α   predicted    -0.3884655E-04 ( -43.12%)
   displ. norm   :     0.3210906 α      lambda       -0.1214792E-03
   maximum displ.:     0.2372363 α      in ANC's #1, #3, #2, ...

........................................................................
.............................. CYCLE   11 ..............................
........................................................................

 iter      E             dE          RMSdq      gap      omega  full diag
   1    -28.2094735 -0.282095E+02  0.116E-01    2.79       0.0  T
   2    -28.2094796 -0.609659E-05  0.643E-02    2.79       1.0  T
   3    -28.2094753  0.432448E-05  0.262E-02    2.79       1.0  T
   4    -28.2094808 -0.545410E-05  0.119E-02    2.79       2.0  T
   5    -28.2094817 -0.961257E-06  0.578E-03    2.79       4.2  T
   6    -28.2094818 -0.734987E-07  0.255E-03    2.79       9.5  T
   7    -28.2094819 -0.648190E-07  0.970E-04    2.79      25.0  T
   8    -28.2094819 -0.164991E-08  0.281E-04    2.79      86.4  T
     SCC iter.                  ...        0 min,  0.895 sec
     gradient                   ...        0 min,  0.192 sec
 * total energy  :   -27.8877312 Eh     change       -0.9644963E-04 Eh
   gradient norm :     0.0045795 Eh/α   predicted    -0.6700794E-04 ( -30.53%)
   displ. norm   :     0.3966615 α      lambda       -0.1138085E-03
   maximum displ.:     0.2895324 α      in ANC's #1, #3, #4, ...

........................................................................
.............................. CYCLE   12 ..............................
........................................................................

 iter      E             dE          RMSdq      gap      omega  full diag
   1    -28.2074985 -0.282075E+02  0.143E-01    2.79       0.0  T
   2    -28.2075083 -0.978394E-05  0.803E-02    2.79       1.0  T
   3    -28.2075034  0.485704E-05  0.306E-02    2.79       1.0  T
   4    -28.2075093 -0.586535E-05  0.150E-02    2.79       1.6  T
   5    -28.2075110 -0.169249E-05  0.731E-03    2.79       3.3  T
   6    -28.2075111 -0.131580E-06  0.297E-03    2.79       8.2  T
   7    -28.2075112 -0.876056E-07  0.121E-03    2.79      20.0  T
   8    -28.2075112 -0.295441E-08  0.376E-04    2.79      64.5  T
   9    -28.2075112 -0.184396E-09  0.135E-04    2.79     179.8  T
     SCC iter.                  ...        0 min,  0.905 sec
     gradient                   ...        0 min,  0.189 sec
 * total energy  :   -27.8877879 Eh     change       -0.5664306E-04 Eh
   gradient norm :     0.0077578 Eh/α   predicted    -0.6585500E-04 (  16.26%)
   displ. norm   :     0.0538538 α      lambda       -0.8622902E-04
   maximum displ.:     0.0333409 α      in ANC's #1, #4, #2, ...

........................................................................
.............................. CYCLE   13 ..............................
........................................................................

 iter      E             dE          RMSdq      gap      omega  full diag
   1    -28.2095231 -0.282095E+02  0.324E-02    2.79       0.0  T
   2    -28.2095262 -0.312022E-05  0.191E-02    2.79       1.3  T
   3    -28.2095264 -0.202044E-06  0.106E-02    2.79       2.3  T
   4    -28.2095261  0.330613E-06  0.550E-03    2.79       4.4  T
   5    -28.2095265 -0.398576E-06  0.930E-04    2.79      26.1  T
   6    -28.2095265 -0.439261E-09  0.483E-04    2.79      50.2  T
     SCC iter.                  ...        0 min,  0.622 sec
     gradient                   ...        0 min,  0.097 sec
 * total energy  :   -27.8878476 Eh     change       -0.5976953E-04 Eh
   gradient norm :     0.0039752 Eh/α   predicted    -0.4323934E-04 ( -27.66%)
   displ. norm   :     0.2633834 α      lambda       -0.1101697E-03
   maximum displ.:     0.1682353 α      in ANC's #1, #4, #2, ...

........................................................................
.............................. CYCLE   14 ..............................
........................................................................

 iter      E             dE          RMSdq      gap      omega  full diag
   1    -28.2101930 -0.282102E+02  0.952E-02    2.79       0.0  T
   2    -28.2101964 -0.336718E-05  0.535E-02    2.79       1.0  T
   3    -28.2101901  0.626985E-05  0.275E-02    2.79       1.0  T
   4    -28.2101974 -0.729823E-05  0.109E-02    2.79       2.2  T
   5    -28.2101984 -0.949574E-06  0.390E-03    2.79       6.2  T
   6    -28.2101984 -0.105308E-07  0.960E-04    2.79      25.3  T
   7    -28.2101984 -0.587911E-08  0.563E-04    2.79      43.1  T
     SCC iter.                  ...        0 min,  0.524 sec
     gradient                   ...        0 min,  0.088 sec
 * total energy  :   -27.8879366 Eh     change       -0.8894488E-04 Eh
   gradient norm :     0.0028948 Eh/α   predicted    -0.5890866E-04 ( -33.77%)
   displ. norm   :     0.4811928 α      lambda       -0.1596196E-03
   maximum displ.:     0.2862209 α      in ANC's #1, #4, #2, ...

........................................................................
.............................. CYCLE   15 ..............................
........................................................................

 iter      E             dE          RMSdq      gap      omega  full diag
   1    -28.2080039 -0.282080E+02  0.168E-01    2.80       0.0  T
   2    -28.2080125 -0.858319E-05  0.947E-02    2.79       1.0  T
   3    -28.2079881  0.244404E-04  0.505E-02    2.80       1.0  T
   4    -28.2080173 -0.292116E-04  0.152E-02    2.79       1.6  T
   5    -28.2080183 -0.104894E-05  0.610E-03    2.79       4.0  T
   6    -28.2080184 -0.512526E-07  0.144E-03    2.79      16.9  T
   7    -28.2080184 -0.138023E-08  0.920E-04    2.79      26.4  T
   8    -28.2080184 -0.252161E-08  0.428E-04    2.79      56.7  T
     SCC iter.                  ...        0 min,  0.623 sec
     gradient                   ...        0 min,  0.095 sec
 * total energy  :   -27.8880229 Eh     change       -0.8636189E-04 Eh
   gradient norm :     0.0074500 Eh/α   predicted    -0.9829276E-04 (  13.81%)
   displ. norm   :     0.1331801 α      lambda       -0.1848944E-03
   maximum displ.:     0.0735811 α      in ANC's #5, #4, #2, ...

........................................................................
.............................. CYCLE   16 ..............................
........................................................................

 iter      E             dE          RMSdq      gap      omega  full diag
   1    -28.2118123 -0.282118E+02  0.675E-02    2.79       0.0  T
   2    -28.2118138 -0.145121E-05  0.365E-02    2.79       1.0  T
   3    -28.2118086  0.511794E-05  0.242E-02    2.79       1.0  T
   4    -28.2118158 -0.718697E-05  0.702E-03    2.79       3.5  T
   5    -28.2118159 -0.124091E-06  0.206E-03    2.79      11.8  T
   6    -28.2118160 -0.305943E-08  0.908E-04    2.79      26.7  T
   7    -28.2118160 -0.581415E-08  0.464E-04    2.79      52.2  T
     SCC iter.                  ...        0 min,  0.507 sec
     gradient                   ...        0 min,  0.102 sec
 * total energy  :   -27.8881126 Eh     change       -0.8970094E-04 Eh
   gradient norm :     0.0066640 Eh/α   predicted    -0.9408904E-04 (   4.89%)
   displ. norm   :     0.2879741 α      lambda       -0.1161526E-03
   maximum displ.:     0.1554490 α      in ANC's #1, #4, #2, ...

........................................................................
.............................. CYCLE   17 ..............................
........................................................................

 iter      E             dE          RMSdq      gap      omega  full diag
   1    -28.2101106 -0.282101E+02  0.953E-02    2.80       0.0  T
   2    -28.2101131 -0.253774E-05  0.538E-02    2.79       1.0  T
   3    -28.2101068  0.630617E-05  0.257E-02    2.79       1.0  T
   4    -28.2101144 -0.757553E-05  0.818E-03    2.79       3.0  T
   5    -28.2101146 -0.196063E-06  0.380E-03    2.79       6.4  T
   6    -28.2101146 -0.627706E-07  0.151E-03    2.79      16.1  T
   7    -28.2101147 -0.196031E-07  0.633E-04    2.79      38.3  T
   8    -28.2101147 -0.464244E-09  0.247E-04    2.79      98.2  T
     SCC iter.                  ...        0 min,  0.669 sec
     gradient                   ...        0 min,  0.111 sec
 * total energy  :   -27.8882010 Eh     change       -0.8835669E-04 Eh
   gradient norm :     0.0066397 Eh/α   predicted    -0.6289211E-04 ( -28.82%)
   displ. norm   :     0.2736930 α      lambda       -0.1906470E-03
   maximum displ.:     0.1367246 α      in ANC's #2, #1, #4, ...

........................................................................
.............................. CYCLE   18 ..............................
........................................................................

 iter      E             dE          RMSdq      gap      omega  full diag
   1    -28.2094716 -0.282095E+02  0.956E-02    2.79       0.0  T
   2    -28.2094770 -0.538562E-05  0.589E-02    2.79       1.0  T
   3    -28.2094700  0.698019E-05  0.348E-02    2.79       1.0  T
   4    -28.2094809 -0.108398E-04  0.933E-03    2.79       2.6  T
   5    -28.2094811 -0.278026E-06  0.492E-03    2.79       4.9  T
   6    -28.2094812 -0.213518E-07  0.294E-03    2.79       8.2  T
   7    -28.2094813 -0.959458E-07  0.744E-04    2.79      32.6  T
   8    -28.2094813 -0.282064E-09  0.278E-04    2.79      87.3  T
     SCC iter.                  ...        0 min,  0.609 sec
     gradient                   ...        0 min,  0.094 sec
 * total energy  :   -27.8883066 Eh     change       -0.1055953E-03 Eh
   gradient norm :     0.0050207 Eh/α   predicted    -0.1024667E-03 (  -2.96%)
   displ. norm   :     0.2377631 α      lambda       -0.1158848E-03
   maximum displ.:     0.1398474 α      in ANC's #2, #4, #6, ...

........................................................................
.............................. CYCLE   19 ..............................
........................................................................

 iter      E             dE          RMSdq      gap      omega  full diag
   1    -28.2083817 -0.282084E+02  0.785E-02    2.78       0.0  T
   2    -28.2083847 -0.302369E-05  0.446E-02    2.79       1.0  T
   3    -28.2083799  0.487597E-05  0.286E-02    2.78       1.0  T
   4    -28.2083877 -0.787305E-05  0.701E-03    2.79       3.5  T
   5    -28.2083877  0.179960E-07  0.406E-03    2.79       6.0  T
   6    -28.2083879 -0.148378E-06  0.133E-03    2.79      18.2  T
   7    -28.2083879 -0.163839E-07  0.485E-04    2.79      50.0  T
   8    -28.2083879 -0.137465E-09  0.164E-04    2.79     147.9  T
     SCC iter.                  ...        0 min,  0.596 sec
     gradient                   ...        0 min,  0.104 sec
 * total energy  :   -27.8883658 Eh     change       -0.5919384E-04 Eh
   gradient norm :     0.0085532 Eh/α   predicted    -0.6121901E-04 (   3.42%)
   displ. norm   :     0.1675421 α      lambda       -0.3146489E-03
   maximum displ.:     0.0980908 α      in ANC's #2, #1, #6, ...

........................................................................
.............................. CYCLE   20 ..............................
........................................................................

 iter      E             dE          RMSdq      gap      omega  full diag
   1    -28.2147649 -0.282148E+02  0.102E-01    2.76       0.0  T
   2    -28.2147801 -0.152744E-04  0.662E-02    2.77       1.0  T
   3    -28.2147983 -0.181992E-04  0.407E-02    2.77       1.0  T
   4    -28.2148048 -0.649574E-05  0.114E-02    2.77       2.1  T
   5    -28.2148059 -0.110043E-05  0.514E-03    2.77       4.7  T
   6    -28.2148061 -0.212838E-06  0.185E-03    2.77      13.1  T
   7    -28.2148062 -0.132224E-07  0.663E-04    2.77      36.6  T
   8    -28.2148062 -0.607887E-09  0.271E-04    2.77      89.4  T
     SCC iter.                  ...        0 min,  0.575 sec
     gradient                   ...        0 min,  0.112 sec
 * total energy  :   -27.8884020 Eh     change       -0.3626202E-04 Eh
   gradient norm :     0.0091556 Eh/α   predicted    -0.1617419E-03 ( 346.04%)
   displ. norm   :     0.2136072 α      lambda       -0.2496776E-03
   maximum displ.:     0.1117143 α      in ANC's #2, #4, #1, ...
 * RMSD in coord.:     0.8123869 α      energy gain  -0.2119252E-01 Eh

generating ANC from exact Hessian ...
Using Lindh-Hessian (1995)
 Shifting diagonal of input Hessian by    5.8033993791681230E-003
 Lowest  eigenvalues of input Hessian
    0.000000    0.000000    0.000000    0.000000    0.000000    0.000000
    0.010000    0.013538    0.016041    0.016923    0.017771    0.025481
    0.029372    0.035458    0.040065    0.057640    0.066249    0.073591
 Highest eigenvalues
    1.399940    1.509864    1.777606    1.989012    2.218886    2.535574


........................................................................
.............................. CYCLE   21 ..............................
........................................................................

 iter      E             dE          RMSdq      gap      omega  full diag
   1    -28.2109589 -0.282110E+02  0.821E-02    2.77       0.0  T
   2    -28.2109628 -0.390609E-05  0.479E-02    2.77       1.0  T
   3    -28.2109572  0.563030E-05  0.263E-02    2.77       1.0  T
   4    -28.2109638 -0.666292E-05  0.792E-03    2.77       3.1  T
   5    -28.2109644 -0.538164E-06  0.278E-03    2.77       8.7  T
   6    -28.2109644 -0.539997E-08  0.110E-03    2.77      22.1  T
   7    -28.2109644 -0.104568E-07  0.483E-04    2.77      50.2  T
   8    -28.2109644 -0.134641E-08  0.239E-04    2.77     101.5  T
     SCC iter.                  ...        0 min,  0.572 sec
     gradient                   ...        0 min,  0.109 sec
 * total energy  :   -27.8885483 Eh     change       -0.1462532E-03 Eh
   gradient norm :     0.0063567 Eh/α   predicted     0.0000000E+00 (-100.00%)
   displ. norm   :     0.0603265 α      lambda       -0.1230372E-03
   maximum displ.:     0.0379109 α      in ANC's #2, #1, #4, ...

........................................................................
.............................. CYCLE   22 ..............................
........................................................................

 iter      E             dE          RMSdq      gap      omega  full diag
   1    -28.2120428 -0.282120E+02  0.319E-02    2.77       0.0  T
   2    -28.2120445 -0.169995E-05  0.218E-02    2.77       1.1  T
   3    -28.2120452 -0.668051E-06  0.125E-02    2.77       1.9  T
   4    -28.2120457 -0.499708E-06  0.476E-03    2.77       5.1  T
   5    -28.2120459 -0.162352E-06  0.174E-03    2.77      13.9  T
   6    -28.2120459  0.255726E-08  0.112E-03    2.77      21.6  T
   7    -28.2120459 -0.144254E-07  0.222E-04    2.77     109.2  T
   8    -28.2120459 -0.360920E-10  0.999E-05    2.77     242.9  T
     SCC iter.                  ...        0 min,  0.552 sec
     gradient                   ...        0 min,  0.106 sec
 * total energy  :   -27.8886399 Eh     change       -0.9157728E-04 Eh
   gradient norm :     0.0028004 Eh/α   predicted    -0.6174234E-04 ( -32.58%)
   displ. norm   :     0.1184498 α      lambda       -0.1092727E-03
   maximum displ.:     0.0840884 α      in ANC's #2, #1, #4, ...

........................................................................
.............................. CYCLE   23 ..............................
........................................................................

 iter      E             dE          RMSdq      gap      omega  full diag
   1    -28.2126267 -0.282126E+02  0.416E-02    2.78       0.0  T
   2    -28.2126295 -0.280403E-05  0.285E-02    2.78       1.0  T
   3    -28.2126305 -0.953568E-06  0.161E-02    2.78       1.5  T
   4    -28.2126312 -0.771161E-06  0.617E-03    2.78       3.9  T
   5    -28.2126315 -0.285240E-06  0.234E-03    2.78      10.4  T
   6    -28.2126315  0.961307E-08  0.148E-03    2.78      16.3  T
   7    -28.2126316 -0.276278E-07  0.275E-04    2.78      88.2  T
   8    -28.2126316 -0.511449E-10  0.118E-04    2.78     205.4  T
     SCC iter.                  ...        0 min,  0.603 sec
     gradient                   ...        0 min,  0.116 sec
 * total energy  :   -27.8887193 Eh     change       -0.7939559E-04 Eh
   gradient norm :     0.0018391 Eh/α   predicted    -0.5540281E-04 ( -30.22%)
   displ. norm   :     0.2259176 α      lambda       -0.8510520E-04
   maximum displ.:     0.1679850 α      in ANC's #2, #1, #4, ...

........................................................................
.............................. CYCLE   24 ..............................
........................................................................

 iter      E             dE          RMSdq      gap      omega  full diag
   1    -28.2119021 -0.282119E+02  0.663E-02    2.79       0.0  T
   2    -28.2119055 -0.338857E-05  0.417E-02    2.79       1.0  T
   3    -28.2119031  0.241559E-05  0.239E-02    2.79       1.0  T
   4    -28.2119072 -0.416103E-05  0.703E-03    2.79       3.4  T
   5    -28.2119076 -0.346767E-06  0.291E-03    2.79       8.3  T
   6    -28.2119076  0.140209E-07  0.170E-03    2.79      14.2  T
   7    -28.2119076 -0.415816E-07  0.317E-04    2.79      76.5  T
   8    -28.2119076 -0.570459E-10  0.117E-04    2.79     207.6  T
     SCC iter.                  ...        0 min,  0.581 sec
     gradient                   ...        0 min,  0.119 sec
 * total energy  :   -27.8888041 Eh     change       -0.8479684E-04 Eh
   gradient norm :     0.0044722 Eh/α   predicted    -0.4351765E-04 ( -48.68%)
   displ. norm   :     0.0928527 α      lambda       -0.5775327E-04
   maximum displ.:     0.0671010 α      in ANC's #2, #1, #3, ...

........................................................................
.............................. CYCLE   25 ..............................
........................................................................

 iter      E             dE          RMSdq      gap      omega  full diag
   1    -28.2118210 -0.282118E+02  0.258E-02    2.79       0.0  T
   2    -28.2118211 -0.160868E-06  0.153E-02    2.79       1.6  T
   3    -28.2118208  0.302015E-06  0.568E-03    2.79       4.3  T
   4    -28.2118212 -0.359387E-06  0.155E-03    2.79      15.7  T
   5    -28.2118212 -0.159798E-07  0.585E-04    2.79      41.4  T
   6    -28.2118212 -0.996678E-10  0.356E-04    2.79      68.1  T
     SCC iter.                  ...        0 min,  0.443 sec
     gradient                   ...        0 min,  0.108 sec
 * total energy  :   -27.8888547 Eh     change       -0.5065264E-04 Eh
   gradient norm :     0.0040506 Eh/α   predicted    -0.2912533E-04 ( -42.50%)
   displ. norm   :     0.2514198 α      lambda       -0.1498951E-03
   maximum displ.:     0.1794005 α      in ANC's #2, #1, #3, ...

........................................................................
.............................. CYCLE   26 ..............................
........................................................................

 iter      E             dE          RMSdq      gap      omega  full diag
   1    -28.2111066 -0.282111E+02  0.708E-02    2.79       0.0  T
   2    -28.2111095 -0.289981E-05  0.431E-02    2.79       1.0  T
   3    -28.2111072  0.231442E-05  0.204E-02    2.79       1.2  T
   4    -28.2111103 -0.311728E-05  0.654E-03    2.79       3.7  T
   5    -28.2111106 -0.333060E-06  0.227E-03    2.79      10.7  T
   6    -28.2111106  0.144873E-07  0.147E-03    2.79      16.5  T
   7    -28.2111106 -0.280746E-07  0.333E-04    2.79      72.9  T
   8    -28.2111106 -0.220762E-09  0.154E-04    2.79     157.9  T
     SCC iter.                  ...        0 min,  0.567 sec
     gradient                   ...        0 min,  0.112 sec
 * total energy  :   -27.8889482 Eh     change       -0.9351036E-04 Eh
   gradient norm :     0.0053637 Eh/α   predicted    -0.7968370E-04 ( -14.79%)
   displ. norm   :     0.0856178 α      lambda       -0.7408566E-04
   maximum displ.:     0.0506752 α      in ANC's #2, #1, #4, ...

........................................................................
.............................. CYCLE   27 ..............................
........................................................................

 iter      E             dE          RMSdq      gap      omega  full diag
   1    -28.2120702 -0.282121E+02  0.322E-02    2.79       0.0  T
   2    -28.2120720 -0.182145E-05  0.208E-02    2.79       1.2  T
   3    -28.2120722 -0.154731E-06  0.115E-02    2.79       2.1  T
   4    -28.2120725 -0.308846E-06  0.505E-03    2.79       4.8  T
   5    -28.2120727 -0.241765E-06  0.181E-03    2.79      13.4  T
   6    -28.2120727  0.528258E-08  0.106E-03    2.79      22.8  T
   7    -28.2120727 -0.150872E-07  0.230E-04    2.79     105.4  T
   8    -28.2120727 -0.705924E-10  0.106E-04    2.79     228.0  T
     SCC iter.                  ...        0 min,  0.605 sec
     gradient                   ...        0 min,  0.098 sec
 * total energy  :   -27.8889996 Eh     change       -0.5136687E-04 Eh
   gradient norm :     0.0035433 Eh/α   predicted    -0.3731472E-04 ( -27.36%)
   displ. norm   :     0.2002675 α      lambda       -0.7218659E-04
   maximum displ.:     0.1361053 α      in ANC's #2, #1, #3, ...

........................................................................
.............................. CYCLE   28 ..............................
........................................................................

 iter      E             dE          RMSdq      gap      omega  full diag
   1    -28.2115932 -0.282116E+02  0.570E-02    2.80       0.0  T
   2    -28.2115951 -0.182829E-05  0.345E-02    2.80       1.0  T
   3    -28.2115947  0.409700E-06  0.121E-02    2.79       2.0  T
   4    -28.2115952 -0.493482E-06  0.529E-03    2.80       4.6  T
   5    -28.2115954 -0.207048E-06  0.228E-03    2.80      10.6  T
   6    -28.2115954 -0.100242E-07  0.806E-04    2.80      30.1  T
   7    -28.2115954 -0.786289E-08  0.334E-04    2.80      72.7  T
     SCC iter.                  ...        0 min,  0.498 sec
     gradient                   ...        0 min,  0.107 sec
 * total energy  :   -27.8890459 Eh     change       -0.4627665E-04 Eh
   gradient norm :     0.0046718 Eh/α   predicted    -0.3754175E-04 ( -18.88%)
   displ. norm   :     0.1215023 α      lambda       -0.7833730E-04
   maximum displ.:     0.0828911 α      in ANC's #1, #2, #4, ...

........................................................................
.............................. CYCLE   29 ..............................
........................................................................

 iter      E             dE          RMSdq      gap      omega  full diag
   1    -28.2128711 -0.282129E+02  0.428E-02    2.80       0.0  T
   2    -28.2128722 -0.104139E-05  0.245E-02    2.80       1.0  T
   3    -28.2128715  0.711985E-06  0.100E-02    2.80       2.4  T
   4    -28.2128723 -0.866809E-06  0.402E-03    2.80       6.0  T
   5    -28.2128724 -0.116427E-06  0.190E-03    2.80      12.8  T
   6    -28.2128725 -0.629175E-08  0.883E-04    2.80      27.5  T
   7    -28.2128725 -0.839994E-08  0.281E-04    2.80      86.3  T
     SCC iter.                  ...        0 min,  0.495 sec
     gradient                   ...        0 min,  0.108 sec
 * total energy  :   -27.8890907 Eh     change       -0.4478897E-04 Eh
   gradient norm :     0.0024181 Eh/α   predicted    -0.3974739E-04 ( -11.26%)
   displ. norm   :     0.1730763 α      lambda       -0.3690298E-04
   maximum displ.:     0.1165985 α      in ANC's #2, #1, #5, ...

........................................................................
.............................. CYCLE   30 ..............................
........................................................................

 iter      E             dE          RMSdq      gap      omega  full diag
   1    -28.2119945 -0.282120E+02  0.491E-02    2.81       0.0  T
   2    -28.2119952 -0.687901E-06  0.287E-02    2.80       1.0  T
   3    -28.2119939  0.129272E-05  0.113E-02    2.81       2.2  T
   4    -28.2119955 -0.159167E-05  0.285E-03    2.81       8.5  T
   5    -28.2119955 -0.237397E-07  0.960E-04    2.81      25.3  T
   6    -28.2119955 -0.614950E-09  0.367E-04    2.81      66.0  T
     SCC iter.                  ...        0 min,  0.403 sec
     gradient                   ...        0 min,  0.095 sec
 * total energy  :   -27.8891093 Eh     change       -0.1863648E-04 Eh
   gradient norm :     0.0036142 Eh/α   predicted    -0.1900347E-04 (   1.97%)
   displ. norm   :     0.0460442 α      lambda       -0.3074227E-04
   maximum displ.:     0.0284569 α      in ANC's #1, #2, #5, ...

........................................................................
.............................. CYCLE   31 ..............................
........................................................................

 iter      E             dE          RMSdq      gap      omega  full diag
   1    -28.2126749 -0.282127E+02  0.184E-02    2.81       0.0  T
   2    -28.2126755 -0.597870E-06  0.120E-02    2.81       2.0  T
   3    -28.2126756 -0.906145E-07  0.661E-03    2.81       3.7  T
   4    -28.2126758 -0.153502E-06  0.213E-03    2.81      11.4  T
   5    -28.2126758 -0.364582E-07  0.747E-04    2.81      32.5  T
   6    -28.2126758 -0.384475E-09  0.137E-04    2.81     177.3  T
     SCC iter.                  ...        0 min,  0.453 sec
     gradient                   ...        0 min,  0.095 sec
 * total energy  :   -27.8891316 Eh     change       -0.2231225E-04 Eh
   gradient norm :     0.0020587 Eh/α   predicted    -0.1540313E-04 ( -30.97%)
   displ. norm   :     0.1329838 α      lambda       -0.2670150E-04
   maximum displ.:     0.0862057 α      in ANC's #1, #2, #5, ...

........................................................................
.............................. CYCLE   32 ..............................
........................................................................

 iter      E             dE          RMSdq      gap      omega  full diag
   1    -28.2126491 -0.282126E+02  0.379E-02    2.81       0.0  T
   2    -28.2126495 -0.420807E-06  0.224E-02    2.81       1.1  T
   3    -28.2126483  0.115667E-05  0.110E-02    2.81       2.2  T
   4    -28.2126498 -0.148141E-05  0.225E-03    2.81      10.8  T
   5    -28.2126498 -0.971514E-08  0.855E-04    2.81      28.4  T
   6    -28.2126498 -0.756863E-09  0.389E-04    2.81      62.3  T
     SCC iter.                  ...        0 min,  0.475 sec
     gradient                   ...        0 min,  0.088 sec
 * total energy  :   -27.8891487 Eh     change       -0.1711418E-04 Eh
   gradient norm :     0.0017003 Eh/α   predicted    -0.1358709E-04 ( -20.61%)
   displ. norm   :     0.0902543 α      lambda       -0.1111659E-04
   maximum displ.:     0.0551647 α      in ANC's #1, #2, #6, ...

........................................................................
.............................. CYCLE   33 ..............................
........................................................................

 iter      E             dE          RMSdq      gap      omega  full diag
   1    -28.2131159 -0.282131E+02  0.290E-02    2.81       0.0  T
   2    -28.2131162 -0.245155E-06  0.161E-02    2.81       1.5  T
   3    -28.2131161  0.137918E-07  0.391E-03    2.81       6.2  T
   4    -28.2131162 -0.290974E-07  0.224E-03    2.81      10.8  T
   5    -28.2131162 -0.292877E-07  0.100E-03    2.81      24.2  T
   6    -28.2131162 -0.783393E-08  0.306E-04    2.81      79.3  T
   7    -28.2131162 -0.624688E-09  0.175E-04    2.81     139.0  T
     SCC iter.                  ...        0 min,  0.513 sec
     gradient                   ...        0 min,  0.100 sec
 * total energy  :   -27.8891564 Eh     change       -0.7678098E-05 Eh
   gradient norm :     0.0008424 Eh/α   predicted    -0.5577045E-05 ( -27.36%)
   displ. norm   :     0.1243802 α      lambda       -0.5514053E-05
   maximum displ.:     0.0819951 α      in ANC's #1, #2, #6, ...

........................................................................
.............................. CYCLE   34 ..............................
........................................................................

 iter      E             dE          RMSdq      gap      omega  full diag
   1    -28.2122639 -0.282123E+02  0.368E-02    2.81       0.0  T
   2    -28.2122646 -0.630007E-06  0.215E-02    2.81       1.1  T
   3    -28.2122645  0.820396E-07  0.638E-03    2.81       3.8  T
   4    -28.2122646 -0.131679E-06  0.274E-03    2.81       8.8  T
   5    -28.2122647 -0.433023E-07  0.130E-03    2.81      18.6  T
   6    -28.2122647 -0.877882E-08  0.265E-04    2.81      91.5  T
   7    -28.2122647 -0.423128E-10  0.175E-04    2.81     138.8  T
     SCC iter.                  ...        0 min,  0.488 sec
     gradient                   ...        0 min,  0.102 sec
 * total energy  :   -27.8891547 Eh     change        0.1720699E-05 Eh
   gradient norm :     0.0020375 Eh/α   predicted    -0.2774644E-05 (-261.25%)
   displ. norm   :     0.0474663 α      lambda       -0.8672332E-05
   maximum displ.:     0.0322283 α      in ANC's #2, #1, #5, ...

........................................................................
.............................. CYCLE   35 ..............................
........................................................................

 iter      E             dE          RMSdq      gap      omega  full diag
   1    -28.2128308 -0.282128E+02  0.143E-02    2.81       0.0  T
   2    -28.2128309 -0.733611E-07  0.825E-03    2.81       2.9  T
   3    -28.2128308  0.741198E-07  0.283E-03    2.81       8.6  T
   4    -28.2128309 -0.902301E-07  0.937E-04    2.81      25.9  T
   5    -28.2128309 -0.563803E-08  0.328E-04    2.81      74.0  T
     SCC iter.                  ...        0 min,  0.307 sec
     gradient                   ...        0 min,  0.115 sec
 * total energy  :   -27.8891598 Eh     change       -0.5119201E-05 Eh
   gradient norm :     0.0007663 Eh/α   predicted    -0.4347024E-05 ( -15.08%)
   displ. norm   :     0.0061174 α      lambda       -0.1025449E-05
   maximum displ.:     0.0047796 α      in ANC's #2, #4, #8, ...

........................................................................
.............................. CYCLE   36 ..............................
........................................................................

 iter      E             dE          RMSdq      gap      omega  full diag
   1    -28.2130808 -0.282131E+02  0.425E-03    2.81       0.0  T
   2    -28.2130808 -0.264498E-07  0.246E-03    2.81       9.9  T
   3    -28.2130808  0.340055E-08  0.156E-03    2.81      15.5  T
   4    -28.2130809 -0.158056E-07  0.474E-04    2.81      51.2  T
   5    -28.2130809 -0.120350E-08  0.173E-04    2.81     140.2  T
     SCC iter.                  ...        0 min,  0.376 sec
     gradient                   ...        0 min,  0.103 sec
 * total energy  :   -27.8891605 Eh     change       -0.7407334E-06 Eh
   gradient norm :     0.0002451 Eh/α   predicted    -0.5124764E-06 ( -30.81%)
   displ. norm   :     0.0139193 α      lambda       -0.2045844E-06
   maximum displ.:     0.0104278 α      in ANC's #1, #2, #6, ...

   *** GEOMETRY OPTIMIZATION CONVERGED AFTER 36 ITERATIONS ***

------------------------------------------------------------------------
 total energy gain   :        -0.0219510 Eh      -13.7745 kcal/mol
 total RMSD          :         0.9051292 a0        0.4790 Å
 total power (kW/mol):        -1.6008997 (step)   -1.5210 (real)
------------------------------------------------------------------------

 ANCopt (total)                0 d,  0 h,  0 min, 37.892 sec
 optimizer setup                ...        0 min,  0.000 sec (  0.000%)
 model hessian                  ...        0 min,  0.004 sec (  0.010%)
 ANC generation                 ...        0 min,  0.001 sec (  0.002%)
 coordinate transformation      ...        0 min,  0.000 sec (  0.001%)
 single point calculation       ...        0 min, 37.324 sec ( 98.500%)
 optimization log               ...        0 min,  0.086 sec (  0.228%)
 hessian update                 ...        0 min,  0.456 sec (  1.205%)
 rational function              ...        0 min,  0.017 sec (  0.044%)

================
 final structure:
================
17
 xtb: 6.7.1 (edcfbbe)
C           -2.27713600325639       -1.27288052117208       -0.33452190869821
C           -1.17728001693156       -0.29756434458574       -0.10131569634901
C           -1.31896254822926        1.02420926144435        0.03960441054248
C           -0.22113652944933        1.91068849090215        0.29316261939466
N            1.00675838970348        1.55426423078903        0.39739744976861
N            1.38703764323859        0.31330582584412        0.21874400227275
C            2.78222293842907        0.02440975530950        0.45135178688029
S            0.41705948642434       -1.15218520314573        0.08364775273993
O            0.34959325263843       -1.79807067755880        1.39050119748336
H           -3.24613926364830       -0.77941004238966       -0.36507862541504
H           -2.28023402658577       -2.01377824645588        0.46523636360181
H           -2.11695092657127       -1.80332591449617       -1.27427592464034
H           -2.30477246867705        1.46711397803961       -0.02721479288435
H           -0.40549839752391        2.96456262714140        0.42896872015335
H            3.18225672685843       -0.54375086260386       -0.38995084531902
H            2.90353067632051       -0.56219716862215        1.36534009782874
H            3.31965006726012        0.96460881156001        0.55168539264058

 Bond Distances (Angstroems)
 ---------------------------
C1-C2=1.4884         C1-H10=1.0878        C1-H11=1.0902        C1-H12=1.0909        C2-C1=1.4884         C2-C3=1.3368         
C2-S8=1.8184         C3-C2=1.3368         C3-C4=1.4337         C3-H13=1.0828        C4-C3=1.4337         C4-N5=1.2828         
C4-H14=1.0785        N5-C4=1.2828         N5-N6=1.3102         N6-N5=1.3102         N6-C7=1.4436         N6-S8=1.7626         
C7-N6=1.4436         C7-H15=1.0912        C7-H16=1.0928        C7-H17=1.0876        S8-C2=1.8184         S8-N6=1.7626         
S8-O9=1.4593         O9-S8=1.4593         H10-C1=1.0878        H11-C1=1.0902        H12-C1=1.0909        H13-C3=1.0828        
H14-C4=1.0785        H15-C7=1.0912        H16-C7=1.0928        H17-C7=1.0876        
 C  H  Rav=1.0877 sigma=0.0045  Rmin=1.0785  Rmax=1.0928     8
 C  C  Rav=1.4196 sigma=0.0627  Rmin=1.3368  Rmax=1.4884     3
 N  C  Rav=1.3632 sigma=0.0804  Rmin=1.2828  Rmax=1.4436     2
 N  N  Rav=1.3102 sigma=0.0000  Rmin=1.3102  Rmax=1.3102     1
 S  C  Rav=1.8184 sigma=0.0000  Rmin=1.8184  Rmax=1.8184     1
 S  N  Rav=1.7626 sigma=0.0000  Rmin=1.7626  Rmax=1.7626     1
 S  O  Rav=1.4593 sigma=0.0000  Rmin=1.4593  Rmax=1.4593     1

 selected bond angles (degree)
 --------------------
H10-C1-C2=111.43               H11-C1-C2=109.42               H11-C1-H10=109.05              H12-C1-C2=110.19               
H12-C1-H10=109.10              H12-C1-H11=107.57              C3-C2-C1=125.88                S8-C2-C1=110.85                
S8-C2-C3=123.16                C4-C3-C2=123.29                H13-C3-C2=119.63               H13-C3-C4=117.07               
N5-C4-C3=125.14                H14-C4-C3=119.71               H14-C4-N5=115.14               N6-N5-C4=122.00                
C7-N6-N5=116.62                S8-N6-N5=129.66                S8-N6-C7=112.20                H15-C7-N6=109.53               
H16-C7-N6=110.45               H16-C7-H15=108.94              H17-C7-N6=108.63               H17-C7-H15=109.88              
H17-C7-H16=109.39              N6-S8-C2= 95.71                O9-S8-C2=104.99                O9-S8-N6=108.95                

 selected dihedral angles (degree)
 ---------------------------------
C3-C2-C1-H10=359.15           C3-C2-C1-H11=238.48           C3-C2-C1-H12=120.40           S8-C2-C1-H10=175.33           
S8-C2-C1-H11= 54.66           S8-C2-C1-H12=296.58           C4-C3-C2-C1=178.53            C4-C3-C2-S8=  2.81            
H13-C3-C2-C1=359.20           H13-C3-C2-S8=183.47           N5-C4-C3-C2=  0.88            N5-C4-C3-H13=180.23           
H14-C4-C3-C2=181.99           H14-C4-C3-H13=  1.34          N6-N5-C4-C3=  3.07            N6-N5-C4-H14=182.01           
C7-N6-N5-C4=184.00            S8-N6-N5-C4=348.69            H15-C7-N6-N5=228.80           H15-C7-N6-S8= 61.49           
H16-C7-N6-N5=108.81           H16-C7-N6-S8=301.49           H17-C7-N6-N5=348.83           H17-C7-N6-S8=181.51           
N6-S8-C2-C1=176.41            N6-S8-C2-C3=352.70            O9-S8-C2-C1=287.80            O9-S8-C2-C3=104.09            
C2-S8-N6-N5= 11.98            C2-S8-N6-C7=177.21            O9-S8-N6-N5=263.98            O9-S8-N6-C7= 69.21            
           -------------------------------------------------
          |                Final Singlepoint                |
           -------------------------------------------------

          ...................................................
          :                      SETUP                      :
          :.................................................:
          :  # basis functions                  50          :
          :  # atomic orbitals                  49          :
          :  # shells                           27          :
          :  # electrons                        50          :
          :  max. iterations                   250          :
          :  Hamiltonian                  GFN2-xTB          :
          :  restarted?                      false          :
          :  GBSA solvation                  false          :
          :  PC potential                    false          :
          :  electronic temp.          300.0000000     K    :
          :  accuracy                    1.0000000          :
          :  -> integral cutoff          0.2500000E+02      :
          :  -> integral neglect         0.1000000E-07      :
          :  -> SCF convergence          0.1000000E-05 Eh   :
          :  -> wf. convergence          0.1000000E-03 e    :
          :  Broyden damping             0.4000000          :
          :  net charge                          0          :
          :  unpaired electrons                  0          :
          ...................................................

 iter      E             dE          RMSdq      gap      omega  full diag
   1    -28.2130809 -0.282131E+02  0.118E-04    2.81       0.0  T
   2    -28.2130809 -0.720846E-11  0.922E-05    2.81     263.0  T
   3    -28.2130809 -0.115701E-09  0.361E-05    2.81     672.4  T

   *** convergence criteria satisfied after 3 iterations ***

         #    Occupation            Energy/Eh            Energy/eV
      -------------------------------------------------------------
         1        2.0000           -0.7605776             -20.6964
       ...           ...                  ...                  ...
        19        2.0000           -0.4765301             -12.9670
        20        2.0000           -0.4675255             -12.7220
        21        2.0000           -0.4446251             -12.0989
        22        2.0000           -0.4344517             -11.8220
        23        2.0000           -0.3935235             -10.7083
        24        2.0000           -0.3821152             -10.3979
        25        2.0000           -0.3696619             -10.0590 (HOMO)
        26                         -0.2662364              -7.2447 (LUMO)
        27                         -0.2193613              -5.9691
        28                         -0.1774270              -4.8280
        29                         -0.1406639              -3.8277
        30                         -0.0638266              -1.7368
       ...                                ...                  ...
        49                          0.9355832              25.4585
      -------------------------------------------------------------
                  HL-Gap            0.1034254 Eh            2.8143 eV
             Fermi-level           -0.3179492 Eh           -8.6518 eV

 SCC (total)                   0 d,  0 h,  0 min,  0.381 sec
 SCC setup                      ...        0 min,  0.008 sec (  1.979%)
 Dispersion                     ...        0 min,  0.010 sec (  2.689%)
 classical contributions        ...        0 min,  0.008 sec (  2.217%)
 integral evaluation            ...        0 min,  0.021 sec (  5.414%)
 iterations                     ...        0 min,  0.232 sec ( 60.937%)
 molecular gradient             ...        0 min,  0.102 sec ( 26.726%)
 printout                       ...        0 min,  0.000 sec (  0.030%)

         :::::::::::::::::::::::::::::::::::::::::::::::::::::
         ::                     SUMMARY                     ::
         :::::::::::::::::::::::::::::::::::::::::::::::::::::
         :: total energy             -27.889160547186 Eh    ::
         :: gradient norm              0.000245368589 Eh/a0 ::
         :: HOMO-LUMO gap              2.814349621557 eV    ::
         ::.................................................::
         :: SCC energy               -28.213039289916 Eh    ::
         :: -> isotropic ES            0.043004149525 Eh    ::
         :: -> anisotropic ES          0.000501577815 Eh    ::
         :: -> anisotropic XC          0.016676288111 Eh    ::
         :: -> dispersion             -0.015132783032 Eh    ::
         :: repulsion energy           0.323878742730 Eh    ::
         :: add. restraining           0.000000000000 Eh    ::
         :: total charge               0.000000000000 e     ::
         :::::::::::::::::::::::::::::::::::::::::::::::::::::

           -------------------------------------------------
          |                Property Printout                |
           -------------------------------------------------

    * Orbital Energies and Occupations

         #    Occupation            Energy/Eh            Energy/eV
      -------------------------------------------------------------
         1        2.0000           -0.7605776             -20.6964
       ...           ...                  ...                  ...
        13        2.0000           -0.5095718             -13.8662
        14        2.0000           -0.5081319             -13.8270
        15        2.0000           -0.4951747             -13.4744
        16        2.0000           -0.4897853             -13.3277
        17        2.0000           -0.4857743             -13.2186
        18        2.0000           -0.4831073             -13.1460
        19        2.0000           -0.4765301             -12.9670
        20        2.0000           -0.4675255             -12.7220
        21        2.0000           -0.4446251             -12.0989
        22        2.0000           -0.4344517             -11.8220
        23        2.0000           -0.3935235             -10.7083
        24        2.0000           -0.3821152             -10.3979
        25        2.0000           -0.3696619             -10.0590 (HOMO)
        26                         -0.2662364              -7.2447 (LUMO)
        27                         -0.2193613              -5.9691
        28                         -0.1774270              -4.8280
        29                         -0.1406639              -3.8277
        30                         -0.0638266              -1.7368
        31                         -0.0249626              -0.6793
        32                          0.0491447               1.3373
        33                          0.0902454               2.4557
        34                          0.0994971               2.7075
        35                          0.1291529               3.5144
        36                          0.1402830               3.8173
       ...                                ...                  ...
        49                          0.9355832              25.4585
      -------------------------------------------------------------
                  HL-Gap            0.1034254 Eh            2.8143 eV
             Fermi-level           -0.3179492 Eh           -8.6518 eV

     #   Z          covCN         q      C6AA      α(0)
     1   6 C        3.802    -0.111    22.626     6.772
     2   6 C        2.937    -0.030    28.755     8.795
     3   6 C        2.921    -0.045    29.128     8.851
     4   6 C        2.862     0.019    27.587     8.609
     5   7 N        1.922    -0.145    24.920     7.402
     6   7 N        2.834    -0.065    22.500     7.045
     7   6 C        3.777    -0.053    21.559     6.615
     8  16 S        2.907     0.468   123.436    18.699
     9   8 O        0.860    -0.489    23.548     6.506
    10   1 H        0.925     0.052     2.295     2.369
    11   1 H        0.924     0.068     2.103     2.268
    12   1 H        0.924     0.052     2.301     2.372
    13   1 H        0.925     0.042     2.428     2.437
    14   1 H        0.926     0.043     2.405     2.425
    15   1 H        0.924     0.053     2.279     2.361
    16   1 H        0.924     0.064     2.154     2.295
    17   1 H        0.925     0.080     1.983     2.202

 Mol. C6AA /au·bohr⁶  :       3958.750471
 Mol. C8AA /au·bohr⁸  :     104141.712312
 Mol. α(0) /au        :         98.023199


Wiberg/Mayer (AO) data.
largest (>0.10) Wiberg bond orders for each atom

 ---------------------------------------------------------------------------
     #   Z sym  total        # sym  WBO       # sym  WBO       # sym  WBO
 ---------------------------------------------------------------------------
     1   6 C    3.995 --     2 C    1.035    10 H    0.979    12 H    0.966
                            11 H    0.963
     2   6 C    3.975 --     3 C    1.748     1 C    1.035     8 S    0.944
     3   6 C    3.992 --     2 C    1.748     4 C    1.157    13 H    0.955
     4   6 C    3.979 --     5 N    1.640     3 C    1.157    14 H    0.961
                             6 N    0.144
     5   7 N    3.118 --     4 C    1.640     6 N    1.221
     6   7 N    3.495 --     5 N    1.221     7 C    0.996     8 S    0.934
                             4 C    0.144
     7   6 C    3.968 --     6 N    0.996    17 H    0.977    15 H    0.977
                            16 H    0.973
     8  16 S    3.914 --     9 O    1.837     2 C    0.944     6 N    0.934
     9   8 O    2.053 --     8 S    1.837
    10   1 H    0.997 --     1 C    0.979
    11   1 H    0.995 --     1 C    0.963
    12   1 H    0.997 --     1 C    0.966
    13   1 H    0.998 --     3 C    0.955
    14   1 H    0.998 --     4 C    0.961
    15   1 H    0.997 --     7 C    0.977
    16   1 H    0.996 --     7 C    0.973
    17   1 H    0.993 --     7 C    0.977
 ---------------------------------------------------------------------------

Topologies differ in total number of bonds
Writing topology from bond orders to xtbtopo.mol

molecular dipole:
                 x           y           z       tot (Debye)
 q only:        0.105       0.308      -1.169
   full:       -0.279       0.339      -0.997       2.768
molecular quadrupole (traceless):
                xx          xy          yy          xz          yz          zz
 q only:        9.041       0.282      -3.711       0.012       6.273      -5.330
  q+dip:        9.188      -1.070      -4.137      -0.122       6.281      -5.050
   full:        9.402      -0.941      -4.967      -0.051       5.958      -4.436

           -------------------------------------------------
          |                Geometry Summary                 |
           -------------------------------------------------

      molecular mass/u    :      144.1948042
   center of mass at/Å    :        0.1731578      -0.1607650       0.2670226
  moments of inertia/u·Å² :        0.2396202E+03   0.3350986E+03   0.5252838E+03
rotational constants/cm⁻¹ :        0.7035147E-01   0.5030648E-01   0.3209243E-01

 * 16 selected distances

     #   Z          #   Z                                           value/Å
     1   6 C        2   6 C                                       1.4883919
     2   6 C        3   6 C                                       1.3367940
     3   6 C        4   6 C                                       1.4336525
     4   6 C        5   7 N                                       1.2828209
     5   7 N        6   7 N                                       1.3101555
     6   7 N        7   6 C                                       1.4436446
     6   7 N        8  16 S                                       1.7626041 (max)
     8  16 S        9   8 O                                       1.4593101
     1   6 C       10   1 H                                       1.0878485
     1   6 C       11   1 H                                       1.0902076
     1   6 C       12   1 H                                       1.0909489
     3   6 C       13   1 H                                       1.0827977
     4   6 C       14   1 H                                       1.0784635 (min)
     7   6 C       15   1 H                                       1.0911571
     7   6 C       16   1 H                                       1.0927937
     7   6 C       17   1 H                                       1.0875979

 * 6 distinct bonds (by element types)

   Z      Z             #   av. dist./Å        max./Å        min./Å
   1 H    6 C           8     1.0877269     1.0927937     1.0784635
   6 C    6 C           3     1.4196128     1.4883919     1.3367940
   6 C    7 N           2     1.3632327     1.4436446     1.2828209
   7 N    7 N           1     1.3101555     1.3101555     1.3101555
   7 N   16 S           1     1.7626041     1.7626041     1.7626041
   8 O   16 S           1     1.4593101     1.4593101     1.4593101


optimized geometry written to: xtbopt.xyz


           -------------------------------------------------
          | TOTAL ENERGY              -27.889160547186 Eh   |
          | GRADIENT NORM               0.000245368589 Eh/α |
          | HOMO-LUMO GAP               2.814349621557 eV   |
           -------------------------------------------------
Note: The following floating-point exceptions are signalling: IEEE_DENORMAL
normal termination of xtb

------------------------------------------------------------------------
 * finished run on 2026/08/20 at 02:24:53.753     
------------------------------------------------------------------------
 total:
 * wall-time:     0 d,  0 h,  0 min, 44.534 sec
 *  cpu-time:     0 d,  0 h,  5 min, 57.881 sec
 * ratio c/w:     8.036 speedup
 SCF:
 * wall-time:     0 d,  0 h,  0 min,  5.861 sec
 *  cpu-time:     0 d,  0 h,  0 min, 12.096 sec
 * ratio c/w:     2.064 speedup
 ANC optimizer:
 * wall-time:     0 d,  0 h,  0 min, 38.275 sec
 *  cpu-time:     0 d,  0 h,  5 min, 44.713 sec
 * ratio c/w:     9.006 speedup

