      -----------------------------------------------------------      
     |                   =====================                   |     
     |                           x T B                           |     
     |                   =====================                   |     
     |                         S. Grimme                         |     
     |          Mulliken Center for Theoretical Chemistry        |     
     |                    University of Bonn                     |     
      -----------------------------------------------------------      

   * xtb version 6.7.1 (edcfbbe) compiled by 'conda@3ef47c1a292c' on 2024-11-25

   xtb is free software: you can redistribute it and/or modify it under
   the terms of the GNU Lesser General Public License as published by
   the Free Software Foundation, either version 3 of the License, or
   (at your option) any later version.
   
   xtb is distributed in the hope that it will be useful,
   but WITHOUT ANY WARRANTY; without even the implied warranty of
   MERCHANTABILITY or FITNESS FOR A PARTICULAR PURPOSE.  See the
   GNU Lesser General Public License for more details.
   
   Cite this work as:
   * C. Bannwarth, E. Caldeweyher, S. Ehlert, A. Hansen, P. Pracht,
     J. Seibert, S. Spicher, S. Grimme, WIREs Comput. Mol. Sci., 2020, 11,
     e01493. DOI: 10.1002/wcms.1493
   
   for GFN2-xTB:
   * C. Bannwarth, S. Ehlert and S. Grimme., J. Chem. Theory Comput., 2019,
     15, 1652-1671. DOI: 10.1021/acs.jctc.8b01176
   for GFN1-xTB:
   * S. Grimme, C. Bannwarth, P. Shushkov, J. Chem. Theory Comput., 2017,
     13, 1989-2009. DOI: 10.1021/acs.jctc.7b00118
   for GFN0-xTB:
   * P. Pracht, E. Caldeweyher, S. Ehlert, S. Grimme, ChemRxiv, 2019, preprint.
     DOI: 10.26434/chemrxiv.8326202.v1
   for GFN-FF:
   * S. Spicher and S. Grimme, Angew. Chem. Int. Ed., 2020, 59, 15665-15673.
     DOI: 10.1002/anie.202004239
   
   for ALPB and GBSA implicit solvation:
   * S. Ehlert, M. Stahn, S. Spicher, S. Grimme, J. Chem. Theory Comput.,
     2021, 17, 4250-4261. DOI: 10.1021/acs.jctc.1c00471
   
   for ddCOSMO and CPCM-X implicit solvation:
   * M. Stahn, S. Ehlert, S. Grimme, J. Phys. Chem. A,
     2023, XX, XXXX-XXXX. DOI: 10.1021/acs.jpca.3c04382
   
   for DFT-D4:
   * E. Caldeweyher, C. Bannwarth and S. Grimme, J. Chem. Phys., 2017,
     147, 034112. DOI: 10.1063/1.4993215
   * E. Caldeweyher, S. Ehlert, A. Hansen, H. Neugebauer, S. Spicher,
     C. Bannwarth and S. Grimme, J. Chem. Phys., 2019, 150, 154122.
     DOI: 10.1063/1.5090222
   * E. Caldeweyher, J.-M. Mewes, S. Ehlert and S. Grimme, Phys. Chem. Chem. Phys.
     2020, 22, 8499-8512. DOI: 10.1039/D0CP00502A
   
   for sTDA-xTB:
   * S. Grimme and C. Bannwarth, J. Chem. Phys., 2016, 145, 054103.
     DOI: 10.1063/1.4959605
   
   in the mass-spec context:
   * V. Asgeirsson, C. Bauer and S. Grimme, Chem. Sci., 2017, 8, 4879.
     DOI: 10.1039/c7sc00601b
   * J. Koopman and S. Grimme, ACS Omega 2019, 4, 12, 15120-15133.
     DOI: 10.1021/acsomega.9b02011
   
   for metadynamics refer to:
   * S. Grimme, J. Chem. Theory Comput., 2019, 155, 2847-2862
     DOI: 10.1021/acs.jctc.9b00143
   
   for SPH calculations refer to:
   * S. Spicher and S. Grimme, J. Chem. Theory Comput., 2021, 17, 1701-1714
     DOI: 10.1021/acs.jctc.0c01306
   
   for ONIOM refer to:
   * C. Plett, A. Katbashev, S. Ehlert, S. Grimme, M. Bursch,
     Phys. Chem. Chem. Phys., 2023, 25, 17860-17868. DOI: 10.1039/D3CP02178E
   
   for DIPRO refer to:
   * J. Kohn, N. Gildemeister, S. Grimme, D. Fazzi, A. Hansen,
     J. Chem. Phys., 2023, just accepted.
   
   for PTB refer to:
   * S. Grimme, M. Mueller, A. Hansen, J. Chem. Phys., 2023, 158, 124111.
     DOI: 10.1063/5.0137838
   
   with help from (in alphabetical order)
   P. Atkinson, C. Bannwarth, F. Bohle, G. Brandenburg, E. Caldeweyher
   M. Checinski, S. Dohm, S. Ehlert, S. Ehrlich, I. Gerasimov, C. Hölzer
   A. Katbashev, J. Kohn, J. Koopman, C. Lavigne, S. Lehtola, F. März, M. Müller,
   F. Musil, H. Neugebauer, J. Pisarek, C. Plett, P. Pracht, F. Pultar,
   J. Seibert, P. Shushkov, S. Spicher, M. Stahn, M. Steiner, T. Strunk,
   J. Stückrath, T. Rose, and J. Unsleber
   
 * started run on 2026/08/20 at 02:50:06.554     
   ID    Z sym.   atoms
    1    6 C      1-4, 7
    2    7 N      5, 6
    3   16 S      8
    4    8 O      9
    5    1 H      10-17
constraining bond 2 6 to    2.0000000 Å, actual value:    2.0000002 Å
constraining bond 2 8 to    2.2000000 Å, actual value:    2.6684237 Å
constraining bond 6 8 to    2.1000000 Å, actual value:    2.1353026 Å

           -------------------------------------------------
          |                Calculation Setup                |
           -------------------------------------------------

          program call               : /h/399/yunhengzou/micromamba/envs/el-agente/bin/xtb pathway_A_TS_Initial_Guess.xyz --opt --gfn 2 -P 4 --chrg 0 --uhf 0 --input detailed_input.inp
          coordinate file            : pathway_A_TS_Initial_Guess.xyz
          omp threads                :                     4


           -------------------------------------------------
          |                 G F N 2 - x T B                 |
           -------------------------------------------------

        Reference                      10.1021/acs.jctc.8b01176
      * Hamiltonian:
        H0-scaling (s, p, d)           1.850000    2.230000    2.230000
        zeta-weighting                 0.500000
      * Dispersion:
        s8                             2.700000
        a1                             0.520000
        a2                             5.000000
        s9                             5.000000
      * Repulsion:
        kExp                           1.500000    1.000000
        rExp                           1.000000
      * Coulomb:
        alpha                          2.000000
        third order                    shell-resolved
        anisotropic                    true
        a3                             3.000000
        a5                             4.000000
        cn-shift                       1.200000
        cn-exp                         4.000000
        max-rad                        5.000000


          ...................................................
          :                      SETUP                      :
          :.................................................:
          :  # basis functions                  50          :
          :  # atomic orbitals                  49          :
          :  # shells                           27          :
          :  # electrons                        50          :
          :  max. iterations                   250          :
          :  Hamiltonian                  GFN2-xTB          :
          :  restarted?                      false          :
          :  GBSA solvation                  false          :
          :  PC potential                    false          :
          :  electronic temp.          300.0000000     K    :
          :  accuracy                    1.0000000          :
          :  -> integral cutoff          0.2500000E+02      :
          :  -> integral neglect         0.1000000E-07      :
          :  -> SCF convergence          0.1000000E-05 Eh   :
          :  -> wf. convergence          0.1000000E-03 e    :
          :  Broyden damping             0.4000000          :
          :  net charge                          0          :
          :  unpaired electrons                  0          :
          ...................................................

 iter      E             dE          RMSdq      gap      omega  full diag
   1    -27.8718097 -0.278718E+02  0.594E+00    0.78       0.0  T
   2    -27.7718959  0.999138E-01  0.400E+00    0.49       1.0  T
   3    -27.7213471  0.505489E-01  0.424E+00    0.71       1.0  T
   4    -27.9114406 -0.190094E+00  0.203E+00    0.57       1.0  T
   5    -27.9032124  0.822823E-02  0.141E+00    0.49       1.0  T
   6    -27.9222709 -0.190585E-01  0.473E-01    0.46       1.0  T
   7    -27.9234315 -0.116057E-02  0.281E-01    0.46       1.0  T
   8    -27.9238258 -0.394326E-03  0.143E-01    0.46       1.0  T
   9    -27.9238975 -0.717240E-04  0.109E-01    0.46       1.0  T
  10    -27.9239664 -0.688920E-04  0.311E-02    0.46       1.0  T
  11    -27.9239714 -0.496161E-05  0.115E-02    0.46       2.1  T
  12    -27.9239715 -0.999864E-07  0.124E-02    0.46       2.0  T
  13    -27.9239721 -0.602723E-06  0.286E-03    0.46       8.5  T
  14    -27.9239721 -0.291260E-07  0.106E-03    0.46      23.0  T
  15    -27.9239721  0.968905E-08  0.147E-03    0.46      16.5  T
  16    -27.9239721 -0.124384E-07  0.581E-04    0.46      41.7  T
  17    -27.9239721 -0.195222E-08  0.543E-05    0.46     446.9  T

   *** convergence criteria satisfied after 17 iterations ***

         #    Occupation            Energy/Eh            Energy/eV
      -------------------------------------------------------------
         1        2.0000           -0.7574465             -20.6112
       ...           ...                  ...                  ...
        19        2.0000           -0.4777667             -13.0007
        20        2.0000           -0.4437723             -12.0757
        21        2.0000           -0.4325083             -11.7692
        22        2.0000           -0.4191788             -11.4064
        23        2.0000           -0.4068452             -11.0708
        24        2.0000           -0.3587341              -9.7617
        25        1.9997           -0.3313809              -9.0173 (HOMO)
        26        0.0003           -0.3144824              -8.5575 (LUMO)
        27                         -0.3019179              -8.2156
        28                         -0.2662726              -7.2456
        29                         -0.1677384              -4.5644
        30                         -0.1529596              -4.1622
       ...                                ...                  ...
        49                          0.8571448              23.3241
      -------------------------------------------------------------
                  HL-Gap            0.0168985 Eh            0.4598 eV
             Fermi-level           -0.3229317 Eh           -8.7874 eV

 SCC (total)                   0 d,  0 h,  0 min,  0.905 sec
 SCC setup                      ...        0 min,  0.004 sec (  0.409%)
 Dispersion                     ...        0 min,  0.000 sec (  0.010%)
 classical contributions        ...        0 min,  0.000 sec (  0.003%)
 integral evaluation            ...        0 min,  0.001 sec (  0.092%)
 iterations                     ...        0 min,  0.850 sec ( 93.825%)
 molecular gradient             ...        0 min,  0.051 sec (  5.642%)
 printout                       ...        0 min,  0.000 sec (  0.016%)

         :::::::::::::::::::::::::::::::::::::::::::::::::::::
         ::                     SUMMARY                     ::
         :::::::::::::::::::::::::::::::::::::::::::::::::::::
         :: total energy             -26.832754006796 Eh    ::
         :: gradient norm              2.615891333202 Eh/a0 ::
         :: HOMO-LUMO gap              0.459831285314 eV    ::
         ::.................................................::
         :: SCC energy               -27.923899966181 Eh    ::
         :: -> isotropic ES            0.036124789056 Eh    ::
         :: -> anisotropic ES         -0.001790583727 Eh    ::
         :: -> anisotropic XC          0.018842965515 Eh    ::
         :: -> dispersion             -0.014783807920 Eh    ::
         :: repulsion energy           0.303129908881 Eh    ::
         :: add. restraining           0.788016050503 Eh    ::
         :: total charge              -0.000000000495 e     ::
         :::::::::::::::::::::::::::::::::::::::::::::::::::::

      ----------------------------------------------------------- 
     |                   =====================                   |
     |                        A N C O P T                        |
     |                   =====================                   |
     |               Approximate Normal Coordinate               |
     |                Rational Function Optimizer                |
      ----------------------------------------------------------- 
      ----------------------------------------------------------- 
     |                   =====================                   |
     |                        A N C O P T                        |
     |                   =====================                   |
     |               Approximate Normal Coordinate               |
     |                Rational Function Optimizer                |
      ----------------------------------------------------------- 

          ...................................................
          :                      SETUP                      :
          :.................................................:
          :   optimization level            normal          :
          :   max. optcycles                   200          :
          :   ANC micro-cycles                  20          :
          :   degrees of freedom                45          :
          :.................................................:
          :   RF solver                   davidson          :
          :   write xtbopt.log                true          :
          :   linear?                        false          :
          :   energy convergence         0.5000000E-05 Eh   :
          :   grad. convergence          0.1000000E-02 Eh/α :
          :   maxmium RF displ.          1.0000000          :
          :   Hlow (freq-cutoff)         0.1000000E-01      :
          :   Hmax (freq-cutoff)         5.0000000          :
          :   S6 in model hess.         20.0000000          :
          ...................................................

generating ANC from exact Hessian ...
Using Lindh-Hessian (1995)
 Shifting diagonal of input Hessian by    5.2596219211181339E-003
 Lowest  eigenvalues of input Hessian
    0.000000    0.000000    0.000000    0.000000    0.000000    0.000000
    0.010000    0.011742    0.012742    0.016355    0.021012    0.024389
    0.025036    0.045092    0.049132    0.058349    0.070581    0.073659
 Highest eigenvalues
    1.805396    2.061381    2.470462    3.147174    4.749111    6.640313


........................................................................
.............................. CYCLE    1 ..............................
........................................................................

 iter      E             dE          RMSdq      gap      omega  full diag
   1    -27.9239721 -0.279240E+02  0.386E-05    0.46       0.0  T
   2    -27.9239721  0.753069E-10  0.846E-05    0.46     286.6  T
   3    -27.9239721 -0.792433E-10  0.239E-05    0.46    1015.4  T
     SCC iter.                  ...        0 min,  0.185 sec
     gradient                   ...        0 min,  0.045 sec
 * total energy  :   -26.8327540 Eh     change       -0.2522427E-11 Eh
   gradient norm :     2.6158897 Eh/α   predicted     0.0000000E+00 (-100.00%)
   displ. norm   :     0.5207193 α      lambda       -0.1305242E+01
   maximum displ.:     0.3297972 α      in ANC's #45, #43, #40, ...

........................................................................
.............................. CYCLE    2 ..............................
........................................................................

 iter      E             dE          RMSdq      gap      omega  full diag
   1    -27.9210531 -0.279211E+02  0.229E+00    1.27       0.0  T
   2    -27.9071332  0.139199E-01  0.130E+00    1.15       1.0  T
   3    -27.9100275 -0.289430E-02  0.146E+00    1.29       1.0  T
   4    -27.9357848 -0.257573E-01  0.388E-01    1.25       1.0  T
   5    -27.9377599 -0.197510E-02  0.161E-01    1.24       1.0  T
   6    -27.9378307 -0.708307E-04  0.790E-02    1.24       1.0  T
   7    -27.9378514 -0.206335E-04  0.314E-02    1.24       1.0  T
   8    -27.9378605 -0.913086E-05  0.151E-02    1.24       1.6  T
   9    -27.9378611 -0.565429E-06  0.904E-03    1.24       2.7  T
  10    -27.9378614 -0.292912E-06  0.196E-03    1.24      12.4  T
  11    -27.9378614 -0.393476E-08  0.109E-03    1.24      22.2  T
  12    -27.9378614 -0.930173E-08  0.421E-04    1.24      57.6  T
  13    -27.9378614 -0.604214E-09  0.201E-04    1.24     120.7  T
     SCC iter.                  ...        0 min,  0.684 sec
     gradient                   ...        0 min,  0.002 sec
 * total energy  :   -27.6072992 Eh     change       -0.7745452E+00 Eh
   gradient norm :     0.6151720 Eh/α   predicted    -0.8295780E+00 (   7.11%)
   displ. norm   :     0.4204074 α      lambda       -0.1860141E+00
   maximum displ.:     0.1747880 α      in ANC's #43, #13, #40, ...

........................................................................
.............................. CYCLE    3 ..............................
........................................................................

 iter      E             dE          RMSdq      gap      omega  full diag
   1    -28.0006205 -0.280006E+02  0.116E+00    1.35       0.0  T
   2    -27.9967403  0.388018E-02  0.731E-01    1.30       1.0  T
   3    -27.9995498 -0.280952E-02  0.658E-01    1.36       1.0  T
   4    -28.0042716 -0.472181E-02  0.250E-01    1.34       1.0  T
   5    -28.0049099 -0.638272E-03  0.736E-02    1.33       1.0  T
   6    -28.0049057  0.418923E-05  0.462E-02    1.33       1.0  T
   7    -28.0049229 -0.172318E-04  0.110E-02    1.33       2.2  T
   8    -28.0049237 -0.782357E-06  0.509E-03    1.33       4.8  T
   9    -28.0049238 -0.400643E-07  0.196E-03    1.33      12.4  T
  10    -28.0049238 -0.321584E-07  0.751E-04    1.33      32.3  T
  11    -28.0049238 -0.708088E-09  0.232E-04    1.33     104.5  T
     SCC iter.                  ...        0 min,  0.177 sec
     gradient                   ...        0 min,  0.002 sec
 * total energy  :   -27.7143374 Eh     change       -0.1070382E+00 Eh
   gradient norm :     0.1763766 Eh/α   predicted    -0.1094453E+00 (   2.25%)
   displ. norm   :     0.5275408 α      lambda       -0.4649523E-01
   maximum displ.:     0.2009512 α      in ANC's #3, #7, #9, ...

........................................................................
.............................. CYCLE    4 ..............................
........................................................................

 iter      E             dE          RMSdq      gap      omega  full diag
   1    -28.0493313 -0.280493E+02  0.677E-01    1.50       0.0  T
   2    -28.0491208  0.210493E-03  0.372E-01    1.48       1.0  T
   3    -28.0490785  0.423128E-04  0.360E-01    1.51       1.0  T
   4    -28.0501650 -0.108654E-02  0.130E-01    1.49       1.0  T
   5    -28.0503763 -0.211251E-03  0.397E-02    1.49       1.0  T
   6    -28.0503814 -0.505865E-05  0.214E-02    1.49       1.1  T
   7    -28.0503842 -0.285723E-05  0.719E-03    1.49       3.4  T
   8    -28.0503845 -0.325535E-06  0.325E-03    1.49       7.5  T
   9    -28.0503846 -0.355666E-07  0.175E-03    1.49      13.8  T
  10    -28.0503846 -0.118792E-07  0.778E-04    1.49      31.2  T
  11    -28.0503846 -0.212250E-08  0.331E-04    1.49      73.3  T
     SCC iter.                  ...        0 min,  0.201 sec
     gradient                   ...        0 min,  0.004 sec
 * total energy  :   -27.7480971 Eh     change       -0.3375972E-01 Eh
   gradient norm :     0.0932022 Eh/α   predicted    -0.2971742E-01 ( -11.97%)
   displ. norm   :     0.4215258 α      lambda       -0.2263048E-01
   maximum displ.:     0.1430443 α      in ANC's #1, #9, #7, ...

........................................................................
.............................. CYCLE    5 ..............................
........................................................................

 iter      E             dE          RMSdq      gap      omega  full diag
   1    -28.0775281 -0.280775E+02  0.701E-01    1.62       0.0  T
   2    -28.0773103  0.217750E-03  0.527E-01    1.55       1.0  T
   3    -28.0801478 -0.283750E-02  0.240E-01    1.60       1.0  T
   4    -28.0803058 -0.158005E-03  0.614E-02    1.59       1.0  T
   5    -28.0803392 -0.334101E-04  0.359E-02    1.59       1.0  T
   6    -28.0803526 -0.133215E-04  0.200E-02    1.59       1.2  T
   7    -28.0803558 -0.324176E-05  0.560E-03    1.59       4.3  T
   8    -28.0803560 -0.155846E-06  0.207E-03    1.59      11.7  T
   9    -28.0803560 -0.103480E-07  0.107E-03    1.59      22.7  T
  10    -28.0803560 -0.597826E-08  0.344E-04    1.59      70.6  T
  11    -28.0803560 -0.423679E-09  0.130E-04    1.59     186.7  T
     SCC iter.                  ...        0 min,  0.226 sec
     gradient                   ...        0 min,  0.002 sec
 * total energy  :   -27.7616810 Eh     change       -0.1358387E-01 Eh
   gradient norm :     0.0339194 Eh/α   predicted    -0.1332577E-01 (  -1.90%)
   displ. norm   :     0.3511915 α      lambda       -0.4109842E-02
   maximum displ.:     0.1886309 α      in ANC's #3, #1, #2, ...

........................................................................
.............................. CYCLE    6 ..............................
........................................................................

 iter      E             dE          RMSdq      gap      omega  full diag
   1    -28.0839350 -0.280839E+02  0.326E-01    1.59       0.0  T
   2    -28.0839479 -0.128249E-04  0.195E-01    1.60       1.0  T
   3    -28.0837586  0.189220E-03  0.144E-01    1.59       1.0  T
   4    -28.0840418 -0.283109E-03  0.420E-02    1.60       1.0  T
   5    -28.0840485 -0.676995E-05  0.281E-02    1.60       1.0  T
   6    -28.0840543 -0.581939E-05  0.542E-03    1.60       4.5  T
   7    -28.0840545 -0.177319E-06  0.288E-03    1.60       8.4  T
   8    -28.0840546 -0.646373E-07  0.142E-03    1.60      17.1  T
   9    -28.0840546 -0.372225E-08  0.695E-04    1.60      34.9  T
  10    -28.0840546 -0.120472E-08  0.291E-04    1.60      83.3  T
     SCC iter.                  ...        0 min,  0.194 sec
     gradient                   ...        0 min,  0.002 sec
 * total energy  :   -27.7641803 Eh     change       -0.2499340E-02 Eh
   gradient norm :     0.0252874 Eh/α   predicted    -0.2308366E-02 (  -7.64%)
   displ. norm   :     0.1893468 α      lambda       -0.8400864E-03
   maximum displ.:     0.1355462 α      in ANC's #1, #2, #3, ...

........................................................................
.............................. CYCLE    7 ..............................
........................................................................

 iter      E             dE          RMSdq      gap      omega  full diag
   1    -28.0832369 -0.280832E+02  0.132E-01    1.60       0.0  T
   2    -28.0832239  0.129828E-04  0.100E-01    1.60       1.0  T
   3    -28.0832396 -0.156473E-04  0.614E-02    1.60       1.0  T
   4    -28.0832633 -0.237935E-04  0.175E-02    1.60       1.4  T
   5    -28.0832658 -0.245969E-05  0.974E-03    1.60       2.5  T
   6    -28.0832668 -0.100321E-05  0.216E-03    1.60      11.2  T
   7    -28.0832668 -0.230575E-07  0.757E-04    1.60      32.0  T
   8    -28.0832668 -0.452621E-08  0.356E-04    1.60      68.1  T
     SCC iter.                  ...        0 min,  0.158 sec
     gradient                   ...        0 min,  0.002 sec
 * total energy  :   -27.7646947 Eh     change       -0.5143867E-03 Eh
   gradient norm :     0.0092430 Eh/α   predicted    -0.4351015E-03 ( -15.41%)
   displ. norm   :     0.0934575 α      lambda       -0.2549089E-03
   maximum displ.:     0.0452551 α      in ANC's #6, #3, #1, ...

........................................................................
.............................. CYCLE    8 ..............................
........................................................................

 iter      E             dE          RMSdq      gap      omega  full diag
   1    -28.0837853 -0.280838E+02  0.573E-02    1.60       0.0  T
   2    -28.0837865 -0.117739E-05  0.380E-02    1.61       1.0  T
   3    -28.0837890 -0.252028E-05  0.240E-02    1.61       1.0  T
   4    -28.0837929 -0.391683E-05  0.881E-03    1.61       2.8  T
   5    -28.0837937 -0.744774E-06  0.513E-03    1.61       4.7  T
   6    -28.0837939 -0.201808E-06  0.184E-03    1.61      13.2  T
   7    -28.0837939 -0.392710E-07  0.425E-04    1.61      57.0  T
   8    -28.0837939 -0.986514E-09  0.230E-04    1.61     105.6  T
     SCC iter.                  ...        0 min,  0.106 sec
     gradient                   ...        0 min,  0.002 sec
 * total energy  :   -27.7648891 Eh     change       -0.1943693E-03 Eh
   gradient norm :     0.0075721 Eh/α   predicted    -0.1285678E-03 ( -33.85%)
   displ. norm   :     0.1491725 α      lambda       -0.3551896E-03
   maximum displ.:     0.0849634 α      in ANC's #6, #3, #2, ...

........................................................................
.............................. CYCLE    9 ..............................
........................................................................

 iter      E             dE          RMSdq      gap      omega  full diag
   1    -28.0839342 -0.280839E+02  0.847E-02    1.62       0.0  T
   2    -28.0839355 -0.135044E-05  0.519E-02    1.63       1.0  T
   3    -28.0839313  0.425150E-05  0.380E-02    1.62       1.0  T
   4    -28.0839462 -0.149474E-04  0.128E-02    1.62       1.9  T
   5    -28.0839477 -0.146036E-05  0.664E-03    1.62       3.7  T
   6    -28.0839479 -0.196231E-06  0.247E-03    1.62       9.8  T
   7    -28.0839479 -0.732657E-07  0.736E-04    1.62      33.0  T
   8    -28.0839479 -0.196282E-08  0.381E-04    1.62      63.7  T
     SCC iter.                  ...        0 min,  0.194 sec
     gradient                   ...        0 min,  0.005 sec
 * total energy  :   -27.7651472 Eh     change       -0.2581312E-03 Eh
   gradient norm :     0.0110413 Eh/α   predicted    -0.1815448E-03 ( -29.67%)
   displ. norm   :     0.1679349 α      lambda       -0.3444702E-03
   maximum displ.:     0.0805614 α      in ANC's #6, #4, #3, ...

........................................................................
.............................. CYCLE   10 ..............................
........................................................................

 iter      E             dE          RMSdq      gap      omega  full diag
   1    -28.0837016 -0.280837E+02  0.881E-02    1.63       0.0  T
   2    -28.0836927  0.895026E-05  0.701E-02    1.63       1.0  T
   3    -28.0837148 -0.221508E-04  0.374E-02    1.63       1.0  T
   4    -28.0837233 -0.843667E-05  0.137E-02    1.63       1.8  T
   5    -28.0837254 -0.212216E-05  0.630E-03    1.63       3.8  T
   6    -28.0837255 -0.162984E-06  0.209E-03    1.63      11.6  T
   7    -28.0837256 -0.300561E-07  0.925E-04    1.63      26.2  T
   8    -28.0837256 -0.494163E-08  0.543E-04    1.63      44.7  T
     SCC iter.                  ...        0 min,  0.106 sec
     gradient                   ...        0 min,  0.002 sec
 * total energy  :   -27.7654026 Eh     change       -0.2554086E-03 Eh
   gradient norm :     0.0150854 Eh/α   predicted    -0.1770956E-03 ( -30.66%)
   displ. norm   :     0.1919531 α      lambda       -0.4293857E-03
   maximum displ.:     0.1136599 α      in ANC's #4, #29, #6, ...

........................................................................
.............................. CYCLE   11 ..............................
........................................................................

 iter      E             dE          RMSdq      gap      omega  full diag
   1    -28.0830361 -0.280830E+02  0.996E-02    1.64       0.0  T
   2    -28.0830200  0.160681E-04  0.857E-02    1.63       1.0  T
   3    -28.0830632 -0.431832E-04  0.403E-02    1.64       1.0  T
   4    -28.0830687 -0.551889E-05  0.165E-02    1.64       1.5  T
   5    -28.0830717 -0.292549E-05  0.797E-03    1.64       3.0  T
   6    -28.0830720 -0.362607E-06  0.339E-03    1.64       7.2  T
   7    -28.0830721 -0.851796E-07  0.130E-03    1.64      18.6  T
   8    -28.0830721 -0.119873E-07  0.653E-04    1.64      37.1  T
   9    -28.0830721 -0.111511E-08  0.208E-04    1.64     116.5  T
     SCC iter.                  ...        0 min,  0.426 sec
     gradient                   ...        0 min,  0.002 sec
 * total energy  :   -27.7657263 Eh     change       -0.3236758E-03 Eh
   gradient norm :     0.0194419 Eh/α   predicted    -0.2226007E-03 ( -31.23%)
   displ. norm   :     0.2364920 α      lambda       -0.6691871E-03
   maximum displ.:     0.1627103 α      in ANC's #4, #29, #15, ...

........................................................................
.............................. CYCLE   12 ..............................
........................................................................

 iter      E             dE          RMSdq      gap      omega  full diag
   1    -28.0824199 -0.280824E+02  0.111E-01    1.63       0.0  T
   2    -28.0824128  0.710087E-05  0.828E-02    1.62       1.0  T
   3    -28.0824318 -0.190547E-04  0.541E-02    1.63       1.0  T
   4    -28.0824478 -0.159687E-04  0.171E-02    1.63       1.4  T
   5    -28.0824501 -0.230946E-05  0.872E-03    1.62       2.8  T
   6    -28.0824509 -0.842873E-06  0.345E-03    1.62       7.0  T
   7    -28.0824510 -0.606296E-07  0.149E-03    1.62      16.3  T
   8    -28.0824510 -0.758492E-08  0.768E-04    1.62      31.6  T
   9    -28.0824510 -0.333532E-08  0.263E-04    1.62      92.3  T
     SCC iter.                  ...        0 min,  0.559 sec
     gradient                   ...        0 min,  0.002 sec
 * total energy  :   -27.7662398 Eh     change       -0.5134638E-03 Eh
   gradient norm :     0.0267692 Eh/α   predicted    -0.3533107E-03 ( -31.19%)
   displ. norm   :     0.3163266 α      lambda       -0.1027865E-02
   maximum displ.:     0.2094681 α      in ANC's #4, #29, #2, ...

........................................................................
.............................. CYCLE   13 ..............................
........................................................................

 iter      E             dE          RMSdq      gap      omega  full diag
   1    -28.0816931 -0.280817E+02  0.141E-01    1.61       0.0  T
   2    -28.0817029 -0.976946E-05  0.782E-02    1.60       1.0  T
   3    -28.0816699  0.329961E-04  0.678E-02    1.61       1.0  T
   4    -28.0817109 -0.410716E-04  0.185E-02    1.61       1.3  T
   5    -28.0817127 -0.172457E-05  0.891E-03    1.60       2.7  T
   6    -28.0817131 -0.464267E-06  0.520E-03    1.61       4.7  T
   7    -28.0817134 -0.284460E-06  0.147E-03    1.61      16.5  T
   8    -28.0817134 -0.221663E-08  0.639E-04    1.60      38.0  T
   9    -28.0817134 -0.221611E-09  0.252E-04    1.60      96.2  T
     SCC iter.                  ...        0 min,  0.157 sec
     gradient                   ...        0 min,  0.002 sec
 * total energy  :   -27.7669984 Eh     change       -0.7586583E-03 Eh
   gradient norm :     0.0405785 Eh/α   predicted    -0.5653604E-03 ( -25.48%)
   displ. norm   :     0.3238824 α      lambda       -0.1223250E-02
   maximum displ.:     0.1780886 α      in ANC's #4, #2, #6, ...

........................................................................
.............................. CYCLE   14 ..............................
........................................................................

 iter      E             dE          RMSdq      gap      omega  full diag
   1    -28.0817074 -0.280817E+02  0.169E-01    1.59       0.0  T
   2    -28.0817201 -0.127214E-04  0.802E-02    1.59       1.0  T
   3    -28.0817107  0.940471E-05  0.373E-02    1.59       1.0  T
   4    -28.0817237 -0.130002E-04  0.144E-02    1.59       1.7  T
   5    -28.0817242 -0.516192E-06  0.764E-03    1.59       3.2  T
   6    -28.0817244 -0.189478E-06  0.396E-03    1.59       6.1  T
   7    -28.0817246 -0.199106E-06  0.171E-03    1.59      14.2  T
   8    -28.0817246 -0.112003E-07  0.110E-03    1.59      22.0  T
   9    -28.0817247 -0.654950E-08  0.453E-04    1.59      53.5  T
  10    -28.0817247 -0.340588E-09  0.162E-04    1.59     149.5  T
     SCC iter.                  ...        0 min,  0.221 sec
     gradient                   ...        0 min,  0.002 sec
 * total energy  :   -27.7679639 Eh     change       -0.9655205E-03 Eh
   gradient norm :     0.0415650 Eh/α   predicted    -0.6757795E-03 ( -30.01%)
   displ. norm   :     0.4528073 α      lambda       -0.1772875E-02
   maximum displ.:     0.2523934 α      in ANC's #2, #4, #7, ...

........................................................................
.............................. CYCLE   15 ..............................
........................................................................

 iter      E             dE          RMSdq      gap      omega  full diag
   1    -28.0810338 -0.280810E+02  0.245E-01    1.58       0.0  T
   2    -28.0809965  0.372683E-04  0.164E-01    1.57       1.0  T
   3    -28.0810576 -0.610720E-04  0.105E-01    1.58       1.0  T
   4    -28.0811456 -0.879792E-04  0.307E-02    1.57       1.0  T
   5    -28.0811569 -0.113538E-04  0.139E-02    1.57       1.7  T
   6    -28.0811576 -0.697336E-06  0.616E-03    1.57       3.9  T
   7    -28.0811578 -0.180761E-06  0.237E-03    1.57      10.3  T
   8    -28.0811578 -0.160384E-07  0.142E-03    1.57      17.1  T
   9    -28.0811578 -0.968133E-08  0.578E-04    1.57      42.0  T
  10    -28.0811578 -0.317442E-09  0.278E-04    1.57      87.4  T
     SCC iter.                  ...        0 min,  0.429 sec
     gradient                   ...        0 min,  0.002 sec
 * total energy  :   -27.7694307 Eh     change       -0.1466792E-02 Eh
   gradient norm :     0.0467500 Eh/α   predicted    -0.1068176E-02 ( -27.18%)
   displ. norm   :     0.5301207 α      lambda       -0.3357687E-02
   maximum displ.:     0.2437073 α      in ANC's #7, #2, #6, ...

........................................................................
.............................. CYCLE   16 ..............................
........................................................................

 iter      E             dE          RMSdq      gap      omega  full diag
   1    -28.0881714 -0.280882E+02  0.396E-01    1.61       0.0  T
   2    -28.0878086  0.362811E-03  0.326E-01    1.63       1.0  T
   3    -28.0886818 -0.873217E-03  0.145E-01    1.61       1.0  T
   4    -28.0887560 -0.742379E-04  0.647E-02    1.62       1.0  T
   5    -28.0888151 -0.590590E-04  0.251E-02    1.62       1.0  T
   6    -28.0888178 -0.269739E-05  0.825E-03    1.61       2.9  T
   7    -28.0888181 -0.336196E-06  0.316E-03    1.61       7.7  T
   8    -28.0888182 -0.854130E-07  0.172E-03    1.61      14.1  T
   9    -28.0888182 -0.621836E-08  0.789E-04    1.61      30.7  T
  10    -28.0888182 -0.157189E-08  0.289E-04    1.61      84.0  T
     SCC iter.                  ...        0 min,  0.578 sec
     gradient                   ...        0 min,  0.051 sec
 * total energy  :   -27.7704211 Eh     change       -0.9903483E-03 Eh
   gradient norm :     0.0699141 Eh/α   predicted    -0.2150648E-02 ( 117.16%)
   displ. norm   :     0.6977486 α      lambda       -0.4793004E-02
   maximum displ.:     0.3611484 α      in ANC's #2, #4, #7, ...

........................................................................
.............................. CYCLE   17 ..............................
........................................................................

 iter      E             dE          RMSdq      gap      omega  full diag
   1    -28.0824789 -0.280825E+02  0.428E-01    1.55       0.0  T
   2    -28.0821221  0.356879E-03  0.341E-01    1.52       1.0  T
   3    -28.0830634 -0.941388E-03  0.161E-01    1.54       1.0  T
   4    -28.0831679 -0.104427E-03  0.729E-02    1.53       1.0  T
   5    -28.0832477 -0.798672E-04  0.278E-02    1.53       1.0  T
   6    -28.0832495 -0.177101E-05  0.134E-02    1.53       1.8  T
   7    -28.0832506 -0.112898E-05  0.534E-03    1.53       4.5  T
   8    -28.0832507 -0.109257E-06  0.276E-03    1.53       8.8  T
   9    -28.0832508 -0.220334E-07  0.114E-03    1.53      21.2  T
  10    -28.0832508 -0.430200E-08  0.450E-04    1.53      53.9  T
  11    -28.0832508 -0.682132E-09  0.246E-04    1.53      98.6  T
     SCC iter.                  ...        0 min,  0.538 sec
     gradient                   ...        0 min,  0.002 sec
 * total energy  :   -27.7726641 Eh     change       -0.2242994E-02 Eh
   gradient norm :     0.1309769 Eh/α   predicted    -0.3563226E-02 (  58.86%)
   displ. norm   :     0.1944327 α      lambda       -0.3628639E-02
   maximum displ.:     0.1200387 α      in ANC's #4, #2, #3, ...

........................................................................
.............................. CYCLE   18 ..............................
........................................................................

 iter      E             dE          RMSdq      gap      omega  full diag
   1    -28.0772112 -0.280772E+02  0.426E-01    1.57       0.0  T
   2    -28.0761235  0.108770E-02  0.561E-01    1.52       1.0  T
   3    -28.0789313 -0.280777E-02  0.122E-01    1.55       1.0  T
   4    -28.0787658  0.165446E-03  0.118E-01    1.54       1.0  T
   5    -28.0789478 -0.181990E-03  0.321E-02    1.55       1.0  T
   6    -28.0789538 -0.598074E-05  0.742E-03    1.55       3.3  T
   7    -28.0789539 -0.109960E-06  0.359E-03    1.55       6.7  T
   8    -28.0789541 -0.175256E-06  0.601E-04    1.55      40.4  T
   9    -28.0789541 -0.164155E-08  0.281E-04    1.55      86.4  T
     SCC iter.                  ...        0 min,  0.329 sec
     gradient                   ...        0 min,  0.069 sec
 * total energy  :   -27.7737391 Eh     change       -0.1075022E-02 Eh
   gradient norm :     0.0526050 Eh/α   predicted    -0.1882909E-02 (  75.15%)
   displ. norm   :     0.2660847 α      lambda       -0.3684584E-02
   maximum displ.:     0.1478964 α      in ANC's #3, #4, #1, ...

........................................................................
.............................. CYCLE   19 ..............................
........................................................................

 iter      E             dE          RMSdq      gap      omega  full diag
   1    -28.0834131 -0.280834E+02  0.433E-01    1.58       0.0  T
   2    -28.0825532  0.859895E-03  0.544E-01    1.62       1.0  T
   3    -28.0852047 -0.265152E-02  0.116E-01    1.59       1.0  T
   4    -28.0850896  0.115082E-03  0.978E-02    1.59       1.0  T
   5    -28.0852277 -0.138070E-03  0.146E-02    1.59       1.7  T
   6    -28.0852291 -0.140895E-05  0.607E-03    1.59       4.0  T
   7    -28.0852294 -0.251411E-06  0.297E-03    1.59       8.2  T
   8    -28.0852294 -0.790540E-07  0.586E-04    1.59      41.4  T
   9    -28.0852294 -0.683578E-10  0.366E-04    1.59      66.3  T
     SCC iter.                  ...        0 min,  0.513 sec
     gradient                   ...        0 min,  0.002 sec
 * total energy  :   -27.7760853 Eh     change       -0.2346154E-02 Eh
   gradient norm :     0.0203680 Eh/α   predicted    -0.1972728E-02 ( -15.92%)
   displ. norm   :     0.7066100 α      lambda       -0.4978396E-02
   maximum displ.:     0.3758596 α      in ANC's #4, #2, #7, ...

........................................................................
.............................. CYCLE   20 ..............................
........................................................................

 iter      E             dE          RMSdq      gap      omega  full diag
   1    -28.0909395 -0.280909E+02  0.316E-01    1.56       0.0  T
   2    -28.0910172 -0.776887E-04  0.143E-01    1.56       1.0  T
   3    -28.0909121  0.105094E-03  0.119E-01    1.56       1.0  T
   4    -28.0910302 -0.118091E-03  0.466E-02    1.56       1.0  T
   5    -28.0910481 -0.179166E-04  0.170E-02    1.56       1.4  T
   6    -28.0910491 -0.971694E-06  0.619E-03    1.56       3.9  T
   7    -28.0910493 -0.172352E-06  0.283E-03    1.56       8.6  T
   8    -28.0910493 -0.100379E-07  0.149E-03    1.56      16.3  T
   9    -28.0910493 -0.940207E-08  0.699E-04    1.56      34.7  T
  10    -28.0910493 -0.415262E-08  0.240E-04    1.56     100.9  T
     SCC iter.                  ...        0 min,  0.345 sec
     gradient                   ...        0 min,  0.002 sec
 * total energy  :   -27.7791425 Eh     change       -0.3057259E-02 Eh
   gradient norm :     0.1477120 Eh/α   predicted    -0.3732036E-02 (  22.07%)
   displ. norm   :     0.3661982 α      lambda       -0.3885656E-02
   maximum displ.:     0.2108744 α      in ANC's #4, #1, #2, ...
 * RMSD in coord.:     1.0084569 α      energy gain  -0.9463885E+00 Eh

generating ANC from exact Hessian ...
Using Lindh-Hessian (1995)
 Shifting diagonal of input Hessian by    7.6822735006932229E-003
 Lowest  eigenvalues of input Hessian
    0.000000    0.000000    0.000000    0.000000    0.000000    0.000000
    0.010000    0.012647    0.013981    0.014308    0.016356    0.018766
    0.020324    0.032588    0.045247    0.054139    0.055726    0.059999
 Highest eigenvalues
    1.859807    2.052969    2.352197    3.556880    3.980153    6.789950


........................................................................
.............................. CYCLE   21 ..............................
........................................................................

 iter      E             dE          RMSdq      gap      omega  full diag
   1    -28.0947692 -0.280948E+02  0.175E-01    1.59       0.0  T
   2    -28.0946992  0.700460E-04  0.145E-01    1.57       1.0  T
   3    -28.0948383 -0.139145E-03  0.770E-02    1.58       1.0  T
   4    -28.0948633 -0.249611E-04  0.336E-02    1.58       1.0  T
   5    -28.0948768 -0.135741E-04  0.136E-02    1.58       1.8  T
   6    -28.0948778 -0.926837E-06  0.549E-03    1.58       4.4  T
   7    -28.0948780 -0.231706E-06  0.134E-03    1.58      18.1  T
   8    -28.0948780 -0.193425E-08  0.669E-04    1.58      36.2  T
   9    -28.0948780 -0.193871E-08  0.286E-04    1.58      84.7  T
     SCC iter.                  ...        0 min,  0.502 sec
     gradient                   ...        0 min,  0.002 sec
 * total energy  :   -27.7824519 Eh     change       -0.3309389E-02 Eh
   gradient norm :     0.1096104 Eh/α   predicted     0.0000000E+00 (-100.00%)
   displ. norm   :     0.5550635 α      lambda       -0.9412227E-02
   maximum displ.:     0.5187566 α      in ANC's #1, #2, #3, ...

........................................................................
.............................. CYCLE   22 ..............................
........................................................................

 iter      E             dE          RMSdq      gap      omega  full diag
   1    -28.1011109 -0.281011E+02  0.235E-01    1.69       0.0  T
   2    -28.1011691 -0.581925E-04  0.151E-01    1.67       1.0  T
   3    -28.1011417  0.273985E-04  0.978E-02    1.68       1.0  T
   4    -28.1011975 -0.557830E-04  0.411E-02    1.67       1.0  T
   5    -28.1012104 -0.129113E-04  0.181E-02    1.68       1.3  T
   6    -28.1012127 -0.233299E-05  0.115E-02    1.67       2.1  T
   7    -28.1012139 -0.112798E-05  0.321E-03    1.67       7.6  T
   8    -28.1012139 -0.418175E-07  0.180E-03    1.67      13.5  T
   9    -28.1012139 -0.652025E-08  0.622E-04    1.67      39.0  T
  10    -28.1012139 -0.397625E-08  0.209E-04    1.67     116.3  T
     SCC iter.                  ...        0 min,  0.461 sec
     gradient                   ...        0 min,  0.002 sec
 * total energy  :   -27.7898544 Eh     change       -0.7402531E-02 Eh
   gradient norm :     0.0253575 Eh/α   predicted    -0.6156119E-02 ( -16.84%)
   displ. norm   :     0.6924224 α      lambda       -0.7542625E-02
   maximum displ.:     0.6016340 α      in ANC's #1, #2, #3, ...

........................................................................
.............................. CYCLE   23 ..............................
........................................................................

 iter      E             dE          RMSdq      gap      omega  full diag
   1    -28.1041333 -0.281041E+02  0.342E-01    1.72       0.0  T
   2    -28.1040103  0.123004E-03  0.275E-01    1.69       1.0  T
   3    -28.1044707 -0.460481E-03  0.134E-01    1.71       1.0  T
   4    -28.1045040 -0.332691E-04  0.733E-02    1.70       1.0  T
   5    -28.1045753 -0.712943E-04  0.247E-02    1.70       1.0  T
   6    -28.1045770 -0.170081E-05  0.127E-02    1.70       1.9  T
   7    -28.1045780 -0.966616E-06  0.444E-03    1.70       5.5  T
   8    -28.1045780 -0.323755E-07  0.227E-03    1.70      10.7  T
   9    -28.1045780 -0.225062E-07  0.596E-04    1.70      40.7  T
  10    -28.1045780 -0.913932E-09  0.271E-04    1.70      89.4  T
     SCC iter.                  ...        0 min,  0.289 sec
     gradient                   ...        0 min,  0.002 sec
 * total energy  :   -27.7964147 Eh     change       -0.6560256E-02 Eh
   gradient norm :     0.0693824 Eh/α   predicted    -0.5579415E-02 ( -14.95%)
   displ. norm   :     0.7962766 α      lambda       -0.8394300E-02
   maximum displ.:     0.6696724 α      in ANC's #1, #2, #3, ...

........................................................................
.............................. CYCLE   24 ..............................
........................................................................

 iter      E             dE          RMSdq      gap      omega  full diag
   1    -28.1042481 -0.281042E+02  0.440E-01    1.77       0.0  T
   2    -28.1038789  0.369281E-03  0.397E-01    1.72       1.0  T
   3    -28.1051604 -0.128153E-02  0.143E-01    1.74       1.0  T
   4    -28.1051065  0.539124E-04  0.102E-01    1.74       1.0  T
   5    -28.1052638 -0.157346E-03  0.314E-02    1.74       1.0  T
   6    -28.1052670 -0.320780E-05  0.122E-02    1.74       2.0  T
   7    -28.1052677 -0.654302E-06  0.444E-03    1.74       5.5  T
   8    -28.1052678 -0.691310E-07  0.221E-03    1.74      11.0  T
   9    -28.1052678 -0.152341E-07  0.803E-04    1.74      30.2  T
  10    -28.1052678 -0.277797E-08  0.283E-04    1.74      85.6  T
     SCC iter.                  ...        0 min,  0.333 sec
     gradient                   ...        0 min,  0.002 sec
 * total energy  :   -27.8031862 Eh     change       -0.6771462E-02 Eh
   gradient norm :     0.0513181 Eh/α   predicted    -0.6858350E-02 (   1.28%)
   displ. norm   :     0.6919971 α      lambda       -0.6664815E-02
   maximum displ.:     0.5150169 α      in ANC's #1, #4, #2, ...

........................................................................
.............................. CYCLE   25 ..............................
........................................................................

 iter      E             dE          RMSdq      gap      omega  full diag
   1    -28.1117897 -0.281118E+02  0.320E-01    1.77       0.0  T
   2    -28.1117541  0.356149E-04  0.201E-01    1.74       1.0  T
   3    -28.1118968 -0.142660E-03  0.145E-01    1.76       1.0  T
   4    -28.1120426 -0.145828E-03  0.550E-02    1.75       1.0  T
   5    -28.1120761 -0.334730E-04  0.256E-02    1.75       1.0  T
   6    -28.1120789 -0.281605E-05  0.114E-02    1.75       2.1  T
   7    -28.1120799 -0.990099E-06  0.345E-03    1.75       7.0  T
   8    -28.1120799 -0.406678E-07  0.196E-03    1.75      12.4  T
   9    -28.1120799 -0.104343E-07  0.692E-04    1.75      35.1  T
  10    -28.1120799 -0.218195E-08  0.247E-04    1.75      98.2  T
     SCC iter.                  ...        0 min,  0.389 sec
     gradient                   ...        0 min,  0.002 sec
 * total energy  :   -27.8087487 Eh     change       -0.5562591E-02 Eh
   gradient norm :     0.0564262 Eh/α   predicted    -0.4928145E-02 ( -11.41%)
   displ. norm   :     0.6646304 α      lambda       -0.7823080E-02
   maximum displ.:     0.4069975 α      in ANC's #1, #5, #4, ...

........................................................................
.............................. CYCLE   26 ..............................
........................................................................

 iter      E             dE          RMSdq      gap      omega  full diag
   1    -28.1255929 -0.281256E+02  0.271E-01    1.84       0.0  T
   2    -28.1256834 -0.905033E-04  0.166E-01    1.82       1.0  T
   3    -28.1256025  0.809046E-04  0.112E-01    1.83       1.0  T
   4    -28.1257391 -0.136586E-03  0.540E-02    1.83       1.0  T
   5    -28.1257743 -0.351927E-04  0.195E-02    1.83       1.2  T
   6    -28.1257763 -0.202967E-05  0.101E-02    1.83       2.4  T
   7    -28.1257767 -0.324797E-06  0.280E-03    1.83       8.7  T
   8    -28.1257767 -0.662362E-07  0.151E-03    1.83      16.1  T
   9    -28.1257767 -0.504886E-08  0.584E-04    1.83      41.5  T
  10    -28.1257767 -0.324746E-09  0.302E-04    1.83      80.2  T
     SCC iter.                  ...        0 min,  0.650 sec
     gradient                   ...        0 min,  0.064 sec
 * total energy  :   -27.8120749 Eh     change       -0.3326165E-02 Eh
   gradient norm :     0.1324412 Eh/α   predicted    -0.5639400E-02 (  69.55%)
   displ. norm   :     0.6338052 α      lambda       -0.8341214E-02
   maximum displ.:     0.4523902 α      in ANC's #1, #2, #3, ...

........................................................................
.............................. CYCLE   27 ..............................
........................................................................

 iter      E             dE          RMSdq      gap      omega  full diag
   1    -28.1257685 -0.281258E+02  0.379E-01    1.77       0.0  T
   2    -28.1257643  0.413957E-05  0.183E-01    1.75       1.0  T
   3    -28.1256543  0.110002E-03  0.183E-01    1.77       1.0  T
   4    -28.1259868 -0.332502E-03  0.482E-02    1.76       1.0  T
   5    -28.1259967 -0.983712E-05  0.291E-02    1.76       1.0  T
   6    -28.1260038 -0.712851E-05  0.878E-03    1.76       2.8  T
   7    -28.1260042 -0.374207E-06  0.330E-03    1.76       7.3  T
   8    -28.1260042 -0.854398E-08  0.190E-03    1.76      12.8  T
   9    -28.1260042 -0.124203E-07  0.478E-04    1.76      50.7  T
  10    -28.1260042 -0.145218E-08  0.170E-04    1.76     142.3  T
     SCC iter.                  ...        0 min,  0.501 sec
     gradient                   ...        0 min,  0.002 sec
 * total energy  :   -27.8165922 Eh     change       -0.4517264E-02 Eh
   gradient norm :     0.0749694 Eh/α   predicted    -0.5845960E-02 (  29.41%)
   displ. norm   :     0.5054837 α      lambda       -0.4742770E-02
   maximum displ.:     0.3370726 α      in ANC's #1, #4, #2, ...

........................................................................
.............................. CYCLE   28 ..............................
........................................................................

 iter      E             dE          RMSdq      gap      omega  full diag
   1    -28.1205107 -0.281205E+02  0.292E-01    1.80       0.0  T
   2    -28.1205605 -0.498488E-04  0.159E-01    1.77       1.0  T
   3    -28.1206051 -0.445826E-04  0.115E-01    1.78       1.0  T
   4    -28.1206592 -0.540781E-04  0.400E-02    1.77       1.0  T
   5    -28.1206730 -0.138012E-04  0.184E-02    1.77       1.3  T
   6    -28.1206754 -0.237456E-05  0.702E-03    1.77       3.5  T
   7    -28.1206758 -0.465016E-06  0.222E-03    1.77      10.9  T
   8    -28.1206758 -0.100389E-07  0.132E-03    1.77      18.4  T
   9    -28.1206758 -0.603062E-08  0.366E-04    1.77      66.3  T
  10    -28.1206758 -0.199904E-09  0.187E-04    1.77     129.5  T
     SCC iter.                  ...        0 min,  0.605 sec
     gradient                   ...        0 min,  0.002 sec
 * total energy  :   -27.8185651 Eh     change       -0.1972914E-02 Eh
   gradient norm :     0.0790978 Eh/α   predicted    -0.2977306E-02 (  50.91%)
   displ. norm   :     0.4003690 α      lambda       -0.3928795E-02
   maximum displ.:     0.2139932 α      in ANC's #5, #1, #3, ...

........................................................................
.............................. CYCLE   29 ..............................
........................................................................

 iter      E             dE          RMSdq      gap      omega  full diag
   1    -28.1246213 -0.281246E+02  0.225E-01    1.80       0.0  T
   2    -28.1246139  0.740574E-05  0.134E-01    1.79       1.0  T
   3    -28.1246595 -0.455950E-04  0.900E-02    1.80       1.0  T
   4    -28.1247155 -0.559568E-04  0.353E-02    1.80       1.0  T
   5    -28.1247340 -0.185088E-04  0.156E-02    1.80       1.6  T
   6    -28.1247352 -0.119021E-05  0.397E-03    1.80       6.1  T
   7    -28.1247352 -0.418905E-07  0.125E-03    1.80      19.4  T
   8    -28.1247352 -0.315978E-08  0.730E-04    1.80      33.2  T
   9    -28.1247352 -0.673772E-09  0.361E-04    1.80      67.1  T
     SCC iter.                  ...        0 min,  0.274 sec
     gradient                   ...        0 min,  0.023 sec
 * total energy  :   -27.8211422 Eh     change       -0.2577157E-02 Eh
   gradient norm :     0.0430430 Eh/α   predicted    -0.2279282E-02 ( -11.56%)
   displ. norm   :     0.4560749 α      lambda       -0.3290818E-02
   maximum displ.:     0.2157124 α      in ANC's #5, #1, #4, ...

........................................................................
.............................. CYCLE   30 ..............................
........................................................................

 iter      E             dE          RMSdq      gap      omega  full diag
   1    -28.1387502 -0.281388E+02  0.232E-01    1.81       0.0  T
   2    -28.1388366 -0.864085E-04  0.239E-01    1.82       1.0  T
   3    -28.1390881 -0.251421E-03  0.110E-01    1.81       1.0  T
   4    -28.1390410  0.470271E-04  0.557E-02    1.81       1.0  T
   5    -28.1390870 -0.459759E-04  0.238E-02    1.81       1.0  T
   6    -28.1390932 -0.620565E-05  0.681E-03    1.81       3.6  T
   7    -28.1390934 -0.142350E-06  0.260E-03    1.81       9.3  T
   8    -28.1390934 -0.658685E-07  0.111E-03    1.81      21.8  T
   9    -28.1390934 -0.285489E-08  0.440E-04    1.81      55.1  T
  10    -28.1390934 -0.240917E-09  0.126E-04    1.81     192.0  T
     SCC iter.                  ...        0 min,  0.414 sec
     gradient                   ...        0 min,  0.002 sec
 * total energy  :   -27.8228826 Eh     change       -0.1740315E-02 Eh
   gradient norm :     0.0187209 Eh/α   predicted    -0.1987663E-02 (  14.21%)
   displ. norm   :     0.6510757 α      lambda       -0.2782400E-02
   maximum displ.:     0.4510216 α      in ANC's #1, #5, #2, ...

........................................................................
.............................. CYCLE   31 ..............................
........................................................................

 iter      E             dE          RMSdq      gap      omega  full diag
   1    -28.1285157 -0.281285E+02  0.394E-01    1.80       0.0  T
   2    -28.1286141 -0.984021E-04  0.232E-01    1.77       1.0  T
   3    -28.1288838 -0.269704E-03  0.129E-01    1.78       1.0  T
   4    -28.1289171 -0.332816E-04  0.586E-02    1.78       1.0  T
   5    -28.1289685 -0.513752E-04  0.236E-02    1.78       1.0  T
   6    -28.1289710 -0.251050E-05  0.540E-03    1.78       4.5  T
   7    -28.1289711 -0.102238E-06  0.260E-03    1.78       9.3  T
   8    -28.1289711 -0.276004E-07  0.135E-03    1.78      18.0  T
   9    -28.1289711 -0.458747E-08  0.421E-04    1.78      57.6  T
  10    -28.1289711 -0.530040E-09  0.161E-04    1.78     150.7  T
     SCC iter.                  ...        0 min,  0.482 sec
     gradient                   ...        0 min,  0.064 sec
 * total energy  :   -27.8242765 Eh     change       -0.1393977E-02 Eh
   gradient norm :     0.0491302 Eh/α   predicted    -0.1980924E-02 (  42.11%)
   displ. norm   :     0.2699995 α      lambda       -0.2700966E-02
   maximum displ.:     0.1314831 α      in ANC's #11, #1, #13, ...

........................................................................
.............................. CYCLE   32 ..............................
........................................................................

 iter      E             dE          RMSdq      gap      omega  full diag
   1    -28.1327524 -0.281328E+02  0.378E-01    1.82       0.0  T
   2    -28.1329263 -0.173896E-03  0.240E-01    1.79       1.0  T
   3    -28.1332094 -0.283116E-03  0.104E-01    1.81       1.0  T
   4    -28.1332365 -0.270770E-04  0.369E-02    1.80       1.0  T
   5    -28.1332439 -0.734918E-05  0.214E-02    1.80       1.1  T
   6    -28.1332488 -0.490532E-05  0.617E-03    1.80       3.9  T
   7    -28.1332489 -0.111276E-06  0.187E-03    1.80      12.9  T
   8    -28.1332489 -0.267610E-07  0.750E-04    1.80      32.3  T
   9    -28.1332489 -0.146044E-08  0.339E-04    1.80      71.5  T
     SCC iter.                  ...        0 min,  0.418 sec
     gradient                   ...        0 min,  0.060 sec
 * total energy  :   -27.8245189 Eh     change       -0.2423479E-03 Eh
   gradient norm :     0.0828969 Eh/α   predicted    -0.1448927E-02 ( 497.87%)
   displ. norm   :     0.2179787 α      lambda       -0.2381563E-02
   maximum displ.:     0.1051989 α      in ANC's #5, #4, #1, ...

........................................................................
.............................. CYCLE   33 ..............................
........................................................................

 iter      E             dE          RMSdq      gap      omega  full diag
   1    -28.1345529 -0.281346E+02  0.291E-01    1.79       0.0  T
   2    -28.1347228 -0.169871E-03  0.323E-01    1.83       1.0  T
   3    -28.1354295 -0.706742E-03  0.102E-01    1.81       1.0  T
   4    -28.1353399  0.896131E-04  0.799E-02    1.81       1.0  T
   5    -28.1354445 -0.104584E-03  0.105E-02    1.81       2.3  T
   6    -28.1354448 -0.324419E-06  0.447E-03    1.81       5.4  T
   7    -28.1354448 -0.448401E-08  0.174E-03    1.81      14.0  T
   8    -28.1354449 -0.312681E-07  0.764E-04    1.81      31.8  T
   9    -28.1354449 -0.100160E-08  0.326E-04    1.81      74.3  T
     SCC iter.                  ...        0 min,  0.406 sec
     gradient                   ...        0 min,  0.002 sec
 * total energy  :   -27.8256346 Eh     change       -0.1115679E-02 Eh
   gradient norm :     0.0316193 Eh/α   predicted    -0.1247361E-02 (  11.80%)
   displ. norm   :     0.3120260 α      lambda       -0.1564208E-02
   maximum displ.:     0.1528244 α      in ANC's #2, #3, #12, ...

........................................................................
.............................. CYCLE   34 ..............................
........................................................................

 iter      E             dE          RMSdq      gap      omega  full diag
   1    -28.1389040 -0.281389E+02  0.401E-01    1.79       0.0  T
   2    -28.1390183 -0.114329E-03  0.293E-01    1.75       1.0  T
   3    -28.1397418 -0.723560E-03  0.981E-02    1.77       1.0  T
   4    -28.1397078  0.340578E-04  0.761E-02    1.76       1.0  T
   5    -28.1398040 -0.962578E-04  0.216E-02    1.76       1.1  T
   6    -28.1398052 -0.117245E-05  0.570E-03    1.76       4.3  T
   7    -28.1398054 -0.193898E-06  0.344E-03    1.76       7.1  T
   8    -28.1398055 -0.588249E-07  0.149E-03    1.76      16.3  T
   9    -28.1398055 -0.510845E-08  0.349E-04    1.76      69.4  T
  10    -28.1398055 -0.260798E-09  0.102E-04    1.76     237.4  T
     SCC iter.                  ...        0 min,  0.834 sec
     gradient                   ...        0 min,  0.002 sec
 * total energy  :   -27.8250823 Eh     change        0.5522624E-03 Eh
   gradient norm :     0.0687746 Eh/α   predicted    -0.8582449E-03 (-255.41%)
   displ. norm   :     0.1428459 α      lambda       -0.2433314E-02
   maximum displ.:     0.1054043 α      in ANC's #3, #1, #5, ...

........................................................................
.............................. CYCLE   35 ..............................
........................................................................

 iter      E             dE          RMSdq      gap      omega  full diag
   1    -28.1363766 -0.281364E+02  0.215E-01    1.78       0.0  T
   2    -28.1364118 -0.351888E-04  0.183E-01    1.80       1.0  T
   3    -28.1366825 -0.270676E-03  0.583E-02    1.79       1.0  T
   4    -28.1366523  0.302225E-04  0.509E-02    1.79       1.0  T
   5    -28.1366959 -0.435637E-04  0.103E-02    1.79       2.3  T
   6    -28.1366961 -0.235980E-06  0.356E-03    1.79       6.8  T
   7    -28.1366961 -0.367238E-07  0.194E-03    1.79      12.5  T
   8    -28.1366962 -0.239824E-07  0.965E-04    1.79      25.1  T
   9    -28.1366962 -0.244570E-08  0.261E-04    1.79      92.9  T
     SCC iter.                  ...        0 min,  0.448 sec
     gradient                   ...        0 min,  0.002 sec
 * total energy  :   -27.8262087 Eh     change       -0.1126407E-02 Eh
   gradient norm :     0.0187848 Eh/α   predicted    -0.1241484E-02 (  10.22%)
   displ. norm   :     0.1558337 α      lambda       -0.7078965E-03
   maximum displ.:     0.0853982 α      in ANC's #3, #1, #4, ...

........................................................................
.............................. CYCLE   36 ..............................
........................................................................

 iter      E             dE          RMSdq      gap      omega  full diag
   1    -28.1365521 -0.281366E+02  0.134E-01    1.80       0.0  T
   2    -28.1365669 -0.148391E-04  0.725E-02    1.80       1.0  T
   3    -28.1365659  0.994260E-06  0.459E-02    1.80       1.0  T
   4    -28.1365768 -0.109051E-04  0.149E-02    1.80       1.6  T
   5    -28.1365779 -0.113023E-05  0.101E-02    1.80       2.4  T
   6    -28.1365789 -0.938408E-06  0.331E-03    1.80       7.3  T
   7    -28.1365790 -0.119438E-06  0.124E-03    1.80      19.6  T
   8    -28.1365790 -0.756927E-08  0.724E-04    1.80      33.5  T
   9    -28.1365790 -0.870926E-09  0.254E-04    1.80      95.5  T
     SCC iter.                  ...        0 min,  0.781 sec
     gradient                   ...        0 min,  0.002 sec
 * total energy  :   -27.8262620 Eh     change       -0.5333935E-04 Eh
   gradient norm :     0.0302795 Eh/α   predicted    -0.3625422E-03 ( 579.69%)
   displ. norm   :     0.0939578 α      lambda       -0.5312407E-03
   maximum displ.:     0.0546462 α      in ANC's #2, #7, #12, ...

........................................................................
.............................. CYCLE   37 ..............................
........................................................................

 iter      E             dE          RMSdq      gap      omega  full diag
   1    -28.1386839 -0.281387E+02  0.711E-02    1.79       0.0  T
   2    -28.1386867 -0.278217E-05  0.370E-02    1.79       1.0  T
   3    -28.1386838  0.286537E-05  0.182E-02    1.79       1.3  T
   4    -28.1386861 -0.229566E-05  0.105E-02    1.79       2.3  T
   5    -28.1386875 -0.136641E-05  0.393E-03    1.79       6.2  T
   6    -28.1386876 -0.488570E-07  0.186E-03    1.79      13.0  T
   7    -28.1386876 -0.346227E-07  0.446E-04    1.79      54.3  T
   8    -28.1386876 -0.558487E-10  0.291E-04    1.79      83.4  T
     SCC iter.                  ...        0 min,  0.609 sec
     gradient                   ...        0 min,  0.077 sec
 * total energy  :   -27.8266046 Eh     change       -0.3425982E-03 Eh
   gradient norm :     0.0119458 Eh/α   predicted    -0.2679657E-03 ( -21.78%)
   displ. norm   :     0.1915130 α      lambda       -0.2470309E-03
   maximum displ.:     0.0891938 α      in ANC's #2, #1, #11, ...

........................................................................
.............................. CYCLE   38 ..............................
........................................................................

 iter      E             dE          RMSdq      gap      omega  full diag
   1    -28.1378387 -0.281378E+02  0.138E-01    1.78       0.0  T
   2    -28.1378491 -0.104293E-04  0.635E-02    1.78       1.0  T
   3    -28.1378543 -0.522738E-05  0.463E-02    1.78       1.0  T
   4    -28.1378658 -0.114703E-04  0.139E-02    1.78       1.7  T
   5    -28.1378684 -0.258720E-05  0.668E-03    1.78       3.6  T
   6    -28.1378687 -0.259566E-06  0.184E-03    1.78      13.2  T
   7    -28.1378687 -0.178667E-07  0.711E-04    1.78      34.1  T
   8    -28.1378687 -0.129676E-08  0.384E-04    1.78      63.2  T
     SCC iter.                  ...        0 min,  0.339 sec
     gradient                   ...        0 min,  0.082 sec
 * total energy  :   -27.8267652 Eh     change       -0.1606029E-03 Eh
   gradient norm :     0.0104688 Eh/α   predicted    -0.1280458E-03 ( -20.27%)
   displ. norm   :     0.1562052 α      lambda       -0.3181356E-03
   maximum displ.:     0.0780439 α      in ANC's #2, #11, #7, ...

........................................................................
.............................. CYCLE   39 ..............................
........................................................................

 iter      E             dE          RMSdq      gap      omega  full diag
   1    -28.1418089 -0.281418E+02  0.151E-01    1.78       0.0  T
   2    -28.1418164 -0.750360E-05  0.632E-02    1.77       1.0  T
   3    -28.1418125  0.388390E-05  0.320E-02    1.78       1.0  T
   4    -28.1418198 -0.721667E-05  0.905E-03    1.78       2.7  T
   5    -28.1418194  0.337780E-06  0.657E-03    1.78       3.7  T
   6    -28.1418200 -0.537604E-06  0.254E-03    1.78       9.5  T
   7    -28.1418200 -0.905812E-07  0.772E-04    1.78      31.4  T
   8    -28.1418200 -0.106488E-08  0.489E-04    1.78      49.6  T
     SCC iter.                  ...        0 min,  0.572 sec
     gradient                   ...        0 min,  0.002 sec
 * total energy  :   -27.8269298 Eh     change       -0.1645956E-03 Eh
   gradient norm :     0.0131603 Eh/α   predicted    -0.1629500E-03 (  -1.00%)
   displ. norm   :     0.2017544 α      lambda       -0.2474803E-03
   maximum displ.:     0.1105620 α      in ANC's #2, #7, #11, ...

........................................................................
.............................. CYCLE   40 ..............................
........................................................................

 iter      E             dE          RMSdq      gap      omega  full diag
   1    -28.1393092 -0.281393E+02  0.158E-01    1.77       0.0  T
   2    -28.1393294 -0.201700E-04  0.756E-02    1.76       1.0  T
   3    -28.1393439 -0.144703E-04  0.495E-02    1.77       1.0  T
   4    -28.1393549 -0.110636E-04  0.133E-02    1.76       1.8  T
   5    -28.1393566 -0.162328E-05  0.825E-03    1.76       2.9  T
   6    -28.1393571 -0.546659E-06  0.241E-03    1.76      10.1  T
   7    -28.1393572 -0.438449E-07  0.999E-04    1.76      24.3  T
   8    -28.1393572 -0.293343E-08  0.576E-04    1.76      42.1  T
     SCC iter.                  ...        0 min,  0.769 sec
     gradient                   ...        0 min,  0.002 sec
 * total energy  :   -27.8270740 Eh     change       -0.1441950E-03 Eh
   gradient norm :     0.0089166 Eh/α   predicted    -0.1287765E-03 ( -10.69%)
   displ. norm   :     0.1161340 α      lambda       -0.2156843E-03
   maximum displ.:     0.0449585 α      in ANC's #2, #8, #5, ...

........................................................................
.............................. CYCLE   41 ..............................
........................................................................

 iter      E             dE          RMSdq      gap      omega  full diag
   1    -28.1388837 -0.281389E+02  0.722E-02    1.75       0.0  T
   2    -28.1388860 -0.231366E-05  0.369E-02    1.76       1.0  T
   3    -28.1388830  0.298773E-05  0.199E-02    1.76       1.2  T
   4    -28.1388872 -0.418895E-05  0.707E-03    1.76       3.4  T
   5    -28.1388872 -0.238943E-07  0.558E-03    1.76       4.3  T
   6    -28.1388876 -0.407087E-06  0.142E-03    1.76      17.1  T
   7    -28.1388876 -0.529706E-08  0.737E-04    1.76      32.9  T
   8    -28.1388876 -0.124799E-08  0.449E-04    1.76      54.0  T
     SCC iter.                  ...        0 min,  0.888 sec
     gradient                   ...        0 min,  0.227 sec
 * total energy  :   -27.8271955 Eh     change       -0.1215030E-03 Eh
   gradient norm :     0.0082422 Eh/α   predicted    -0.1092970E-03 ( -10.05%)
   displ. norm   :     0.1284826 α      lambda       -0.1561471E-03
   maximum displ.:     0.0582734 α      in ANC's #5, #1, #3, ...

........................................................................
.............................. CYCLE   42 ..............................
........................................................................

 iter      E             dE          RMSdq      gap      omega  full diag
   1    -28.1395952 -0.281396E+02  0.473E-02    1.75       0.0  T
   2    -28.1395967 -0.153387E-05  0.263E-02    1.75       1.0  T
   3    -28.1395956  0.115266E-05  0.149E-02    1.75       1.6  T
   4    -28.1395972 -0.162370E-05  0.542E-03    1.75       4.5  T
   5    -28.1395973 -0.125419E-06  0.374E-03    1.75       6.5  T
   6    -28.1395975 -0.203356E-06  0.888E-04    1.75      27.3  T
   7    -28.1395975 -0.393611E-08  0.488E-04    1.75      49.7  T
     SCC iter.                  ...        0 min,  1.593 sec
     gradient                   ...        0 min,  0.286 sec
 * total energy  :   -27.8273003 Eh     change       -0.1047530E-03 Eh
   gradient norm :     0.0060718 Eh/α   predicted    -0.7936362E-04 ( -24.24%)
   displ. norm   :     0.2005938 α      lambda       -0.1680787E-03
   maximum displ.:     0.0863394 α      in ANC's #5, #3, #1, ...
 * RMSD in coord.:     1.6164552 α      energy gain  -0.4815778E-01 Eh

generating ANC from exact Hessian ...
Using Lindh-Hessian (1995)
 Shifting diagonal of input Hessian by    7.2728076887464497E-003
 Lowest  eigenvalues of input Hessian
    0.000000    0.000000    0.000000    0.000000    0.000000    0.000000
    0.010000    0.011426    0.013025    0.013379    0.015711    0.019819
    0.022467    0.030445    0.033116    0.049854    0.051406    0.068583
 Highest eigenvalues
    1.909415    2.044819    2.348957    3.336148    3.618584    6.673270


........................................................................
.............................. CYCLE   43 ..............................
........................................................................

 iter      E             dE          RMSdq      gap      omega  full diag
   1    -28.1388901 -0.281389E+02  0.735E-02    1.74       0.0  T
   2    -28.1388934 -0.321862E-05  0.496E-02    1.74       1.0  T
   3    -28.1389005 -0.718491E-05  0.296E-02    1.74       1.0  T
   4    -28.1389008 -0.264909E-06  0.151E-02    1.74       1.6  T
   5    -28.1389052 -0.442434E-05  0.391E-03    1.74       6.2  T
   6    -28.1389053 -0.656456E-07  0.131E-03    1.74      18.4  T
   7    -28.1389053 -0.971642E-08  0.583E-04    1.74      41.6  T
   8    -28.1389053 -0.205287E-08  0.340E-04    1.74      71.3  T
     SCC iter.                  ...        0 min,  0.835 sec
     gradient                   ...        0 min,  0.065 sec
 * total energy  :   -27.8274119 Eh     change       -0.1116159E-03 Eh
   gradient norm :     0.0083842 Eh/α   predicted     0.0000000E+00 (-100.00%)
   displ. norm   :     0.1188020 α      lambda       -0.3197950E-03
   maximum displ.:     0.0752666 α      in ANC's #1, #2, #10, ...

........................................................................
.............................. CYCLE   44 ..............................
........................................................................

 iter      E             dE          RMSdq      gap      omega  full diag
   1    -28.1396160 -0.281396E+02  0.148E-01    1.75       0.0  T
   2    -28.1396280 -0.120038E-04  0.768E-02    1.75       1.0  T
   3    -28.1396257  0.230744E-05  0.525E-02    1.75       1.0  T
   4    -28.1396390 -0.133119E-04  0.201E-02    1.75       1.2  T
   5    -28.1396430 -0.400769E-05  0.122E-02    1.75       2.0  T
   6    -28.1396443 -0.128297E-05  0.284E-03    1.75       8.5  T
   7    -28.1396443 -0.211769E-07  0.141E-03    1.75      17.2  T
   8    -28.1396444 -0.968578E-08  0.741E-04    1.75      32.7  T
   9    -28.1396444 -0.109278E-08  0.259E-04    1.75      93.6  T
     SCC iter.                  ...        0 min,  0.700 sec
     gradient                   ...        0 min,  0.073 sec
 * total energy  :   -27.8275074 Eh     change       -0.9549756E-04 Eh
   gradient norm :     0.0029978 Eh/α   predicted    -0.1621547E-03 (  69.80%)
   displ. norm   :     0.0512592 α      lambda       -0.8766106E-04
   maximum displ.:     0.0270090 α      in ANC's #1, #4, #2, ...

........................................................................
.............................. CYCLE   45 ..............................
........................................................................

 iter      E             dE          RMSdq      gap      omega  full diag
   1    -28.1398210 -0.281398E+02  0.490E-02    1.75       0.0  T
   2    -28.1398220 -0.998041E-06  0.258E-02    1.75       1.0  T
   3    -28.1398203  0.168859E-05  0.195E-02    1.75       1.2  T
   4    -28.1398231 -0.278603E-05  0.733E-03    1.75       3.3  T
   5    -28.1398237 -0.605189E-06  0.420E-03    1.75       5.8  T
   6    -28.1398238 -0.142139E-06  0.101E-03    1.75      24.1  T
   7    -28.1398238 -0.152402E-08  0.554E-04    1.75      43.8  T
   8    -28.1398238 -0.187190E-08  0.275E-04    1.75      88.1  T
     SCC iter.                  ...        0 min,  0.730 sec
     gradient                   ...        0 min,  0.068 sec
 * total energy  :   -27.8275624 Eh     change       -0.5494736E-04 Eh
   gradient norm :     0.0020646 Eh/α   predicted    -0.4394482E-04 ( -20.02%)
   displ. norm   :     0.0652989 α      lambda       -0.3603659E-04
   maximum displ.:     0.0494059 α      in ANC's #2, #4, #7, ...

........................................................................
.............................. CYCLE   46 ..............................
........................................................................

 iter      E             dE          RMSdq      gap      omega  full diag
   1    -28.1397687 -0.281398E+02  0.252E-02    1.75       0.0  T
   2    -28.1397691 -0.383879E-06  0.137E-02    1.75       1.8  T
   3    -28.1397690  0.825156E-07  0.910E-03    1.75       2.7  T
   4    -28.1397694 -0.354472E-06  0.247E-03    1.75       9.8  T
   5    -28.1397694  0.254492E-07  0.205E-03    1.75      11.8  T
   6    -28.1397694 -0.690994E-07  0.492E-04    1.75      49.2  T
   7    -28.1397694 -0.140864E-08  0.253E-04    1.75      95.9  T
     SCC iter.                  ...        0 min,  0.581 sec
     gradient                   ...        0 min,  0.108 sec
 * total energy  :   -27.8275924 Eh     change       -0.2999809E-04 Eh
   gradient norm :     0.0011002 Eh/α   predicted    -0.1809568E-04 ( -39.68%)
   displ. norm   :     0.2192698 α      lambda       -0.6574242E-04
   maximum displ.:     0.1582692 α      in ANC's #2, #4, #6, ...

........................................................................
.............................. CYCLE   47 ..............................
........................................................................

 iter      E             dE          RMSdq      gap      omega  full diag
   1    -28.1389608 -0.281390E+02  0.622E-02    1.75       0.0  T
   2    -28.1389623 -0.150597E-05  0.367E-02    1.75       1.0  T
   3    -28.1389592  0.304031E-05  0.248E-02    1.75       1.0  T
   4    -28.1389630 -0.379439E-05  0.684E-03    1.75       3.5  T
   5    -28.1389637 -0.631557E-06  0.381E-03    1.75       6.4  T
   6    -28.1389638 -0.184158E-06  0.852E-04    1.75      28.5  T
   7    -28.1389638 -0.280665E-08  0.452E-04    1.75      53.7  T
     SCC iter.                  ...        0 min,  0.655 sec
     gradient                   ...        0 min,  0.124 sec
 * total energy  :   -27.8276640 Eh     change       -0.7160669E-04 Eh
   gradient norm :     0.0035582 Eh/α   predicted    -0.3357053E-04 ( -53.12%)
   displ. norm   :     0.1439631 α      lambda       -0.6067966E-04
   maximum displ.:     0.0977758 α      in ANC's #2, #4, #6, ...

........................................................................
.............................. CYCLE   48 ..............................
........................................................................

 iter      E             dE          RMSdq      gap      omega  full diag
   1    -28.1386676 -0.281387E+02  0.358E-02    1.74       0.0  T
   2    -28.1386678 -0.173162E-06  0.214E-02    1.74       1.1  T
   3    -28.1386663  0.145125E-05  0.110E-02    1.75       2.2  T
   4    -28.1386678 -0.152195E-05  0.219E-03    1.75      11.1  T
   5    -28.1386679 -0.539751E-07  0.114E-03    1.75      21.3  T
   6    -28.1386679 -0.204094E-07  0.362E-04    1.75      66.9  T
   7    -28.1386679 -0.557492E-09  0.126E-04    1.75     192.4  T
     SCC iter.                  ...        0 min,  0.581 sec
     gradient                   ...        0 min,  0.097 sec
 * total energy  :   -27.8277145 Eh     change       -0.5058543E-04 Eh
   gradient norm :     0.0042166 Eh/α   predicted    -0.3096824E-04 ( -38.78%)
   displ. norm   :     0.2812417 α      lambda       -0.1210826E-03
   maximum displ.:     0.1797868 α      in ANC's #2, #4, #6, ...

........................................................................
.............................. CYCLE   49 ..............................
........................................................................

 iter      E             dE          RMSdq      gap      omega  full diag
   1    -28.1377871 -0.281378E+02  0.708E-02    1.74       0.0  T
   2    -28.1377876 -0.459489E-06  0.422E-02    1.74       1.0  T
   3    -28.1377755  0.120958E-04  0.279E-02    1.74       1.0  T
   4    -28.1377885 -0.129410E-04  0.413E-03    1.74       5.9  T
   5    -28.1377887 -0.199995E-06  0.180E-03    1.74      13.5  T
   6    -28.1377887 -0.364587E-07  0.610E-04    1.74      39.8  T
   7    -28.1377887 -0.343833E-08  0.220E-04    1.74     110.4  T
     SCC iter.                  ...        0 min,  0.536 sec
     gradient                   ...        0 min,  0.112 sec
 * total energy  :   -27.8277824 Eh     change       -0.6790035E-04 Eh
   gradient norm :     0.0061571 Eh/α   predicted    -0.6532292E-04 (  -3.80%)
   displ. norm   :     0.0559407 α      lambda       -0.9040294E-04
   maximum displ.:     0.0381545 α      in ANC's #4, #6, #2, ...

........................................................................
.............................. CYCLE   50 ..............................
........................................................................

 iter      E             dE          RMSdq      gap      omega  full diag
   1    -28.1397470 -0.281397E+02  0.282E-02    1.74       0.0  T
   2    -28.1397476 -0.673723E-06  0.150E-02    1.74       1.6  T
   3    -28.1397472  0.472538E-06  0.941E-03    1.74       2.6  T
   4    -28.1397477 -0.537963E-06  0.389E-03    1.74       6.2  T
   5    -28.1397479 -0.168489E-06  0.187E-03    1.74      13.0  T
   6    -28.1397479 -0.238749E-07  0.723E-04    1.74      33.6  T
   7    -28.1397479 -0.347797E-08  0.252E-04    1.74      96.3  T
     SCC iter.                  ...        0 min,  0.630 sec
     gradient                   ...        0 min,  0.139 sec
 * total energy  :   -27.8278400 Eh     change       -0.5756851E-04 Eh
   gradient norm :     0.0023957 Eh/α   predicted    -0.4534288E-04 ( -21.24%)
   displ. norm   :     0.1961343 α      lambda       -0.6757010E-04
   maximum displ.:     0.1463630 α      in ANC's #4, #2, #6, ...

........................................................................
.............................. CYCLE   51 ..............................
........................................................................

 iter      E             dE          RMSdq      gap      omega  full diag
   1    -28.1394946 -0.281395E+02  0.490E-02    1.74       0.0  T
   2    -28.1394948 -0.162676E-06  0.287E-02    1.74       1.0  T
   3    -28.1394913  0.352311E-05  0.142E-02    1.74       1.7  T
   4    -28.1394948 -0.355003E-05  0.452E-03    1.74       5.4  T
   5    -28.1394951 -0.281299E-06  0.187E-03    1.74      12.9  T
   6    -28.1394951 -0.179083E-07  0.310E-04    1.74      78.3  T
   7    -28.1394951 -0.475165E-09  0.160E-04    1.74     151.7  T
     SCC iter.                  ...        0 min,  0.527 sec
     gradient                   ...        0 min,  0.136 sec
 * total energy  :   -27.8278918 Eh     change       -0.5181465E-04 Eh
   gradient norm :     0.0032060 Eh/α   predicted    -0.3508408E-04 ( -32.29%)
   displ. norm   :     0.2353619 α      lambda       -0.8766387E-04
   maximum displ.:     0.1910116 α      in ANC's #4, #2, #6, ...

........................................................................
.............................. CYCLE   52 ..............................
........................................................................

 iter      E             dE          RMSdq      gap      omega  full diag
   1    -28.1390979 -0.281391E+02  0.609E-02    1.74       0.0  T
   2    -28.1390986 -0.717369E-06  0.349E-02    1.74       1.0  T
   3    -28.1390968  0.179181E-05  0.152E-02    1.74       1.6  T
   4    -28.1390987 -0.185860E-05  0.540E-03    1.74       4.5  T
   5    -28.1390989 -0.278077E-06  0.287E-03    1.74       8.4  T
   6    -28.1390990 -0.932833E-07  0.659E-04    1.74      36.8  T
   7    -28.1390990 -0.509895E-08  0.243E-04    1.74      99.9  T
     SCC iter.                  ...        0 min,  0.516 sec
     gradient                   ...        0 min,  0.002 sec
 * total energy  :   -27.8279481 Eh     change       -0.5625410E-04 Eh
   gradient norm :     0.0042863 Eh/α   predicted    -0.4626151E-04 ( -17.76%)
   displ. norm   :     0.1077840 α      lambda       -0.8174573E-04
   maximum displ.:     0.0916570 α      in ANC's #4, #5, #3, ...

........................................................................
.............................. CYCLE   53 ..............................
........................................................................

 iter      E             dE          RMSdq      gap      omega  full diag
   1    -28.1410313 -0.281410E+02  0.400E-02    1.74       0.0  T
   2    -28.1410328 -0.155887E-05  0.228E-02    1.74       1.1  T
   3    -28.1410320  0.806225E-06  0.161E-02    1.74       1.5  T
   4    -28.1410334 -0.132613E-05  0.532E-03    1.74       4.6  T
   5    -28.1410336 -0.267520E-06  0.323E-03    1.74       7.5  T
   6    -28.1410338 -0.166904E-06  0.822E-04    1.74      29.5  T
   7    -28.1410338 -0.114812E-08  0.313E-04    1.74      77.4  T
     SCC iter.                  ...        0 min,  0.425 sec
     gradient                   ...        0 min,  0.002 sec
 * total energy  :   -27.8279830 Eh     change       -0.3488684E-04 Eh
   gradient norm :     0.0031395 Eh/α   predicted    -0.4134824E-04 (  18.52%)
   displ. norm   :     0.2157732 α      lambda       -0.5561494E-04
   maximum displ.:     0.1764887 α      in ANC's #4, #2, #6, ...

........................................................................
.............................. CYCLE   54 ..............................
........................................................................

 iter      E             dE          RMSdq      gap      omega  full diag
   1    -28.1387579 -0.281388E+02  0.595E-02    1.74       0.0  T
   2    -28.1387591 -0.122072E-05  0.339E-02    1.74       1.0  T
   3    -28.1387578  0.133129E-05  0.186E-02    1.74       1.3  T
   4    -28.1387597 -0.191332E-05  0.421E-03    1.74       5.8  T
   5    -28.1387597 -0.231569E-07  0.187E-03    1.74      13.0  T
   6    -28.1387597 -0.382743E-07  0.107E-03    1.74      22.6  T
   7    -28.1387598 -0.198337E-07  0.285E-04    1.74      85.2  T
   8    -28.1387598 -0.458350E-09  0.149E-04    1.74     162.7  T
     SCC iter.                  ...        0 min,  0.653 sec
     gradient                   ...        0 min,  0.002 sec
 * total energy  :   -27.8280015 Eh     change       -0.1857731E-04 Eh
   gradient norm :     0.0039123 Eh/α   predicted    -0.2910133E-04 (  56.65%)
   displ. norm   :     0.0631349 α      lambda       -0.3349179E-04
   maximum displ.:     0.0554089 α      in ANC's #4, #2, #8, ...

........................................................................
.............................. CYCLE   55 ..............................
........................................................................

 iter      E             dE          RMSdq      gap      omega  full diag
   1    -28.1401410 -0.281401E+02  0.222E-02    1.74       0.0  T
   2    -28.1401413 -0.324270E-06  0.123E-02    1.74       2.0  T
   3    -28.1401408  0.571499E-06  0.667E-03    1.74       3.6  T
   4    -28.1401413 -0.510201E-06  0.326E-03    1.74       7.4  T
   5    -28.1401414 -0.161450E-06  0.740E-04    1.74      32.8  T
   6    -28.1401414 -0.184270E-08  0.312E-04    1.74      77.8  T
     SCC iter.                  ...        0 min,  0.489 sec
     gradient                   ...        0 min,  0.107 sec
 * total energy  :   -27.8280192 Eh     change       -0.1762116E-04 Eh
   gradient norm :     0.0014704 Eh/α   predicted    -0.1681069E-04 (  -4.60%)
   displ. norm   :     0.0844851 α      lambda       -0.1296309E-04
   maximum displ.:     0.0613784 α      in ANC's #4, #2, #6, ...

........................................................................
.............................. CYCLE   56 ..............................
........................................................................

 iter      E             dE          RMSdq      gap      omega  full diag
   1    -28.1403598 -0.281404E+02  0.257E-02    1.74       0.0  T
   2    -28.1403599 -0.936277E-07  0.158E-02    1.74       1.5  T
   3    -28.1403595  0.389325E-06  0.116E-02    1.74       2.1  T
   4    -28.1403602 -0.652462E-06  0.419E-03    1.74       5.8  T
   5    -28.1403605 -0.352397E-06  0.111E-03    1.74      21.8  T
   6    -28.1403605 -0.618045E-08  0.233E-04    1.74     104.0  T
   7    -28.1403605 -0.424393E-09  0.924E-05    1.74     262.6  T
     SCC iter.                  ...        0 min,  0.582 sec
     gradient                   ...        0 min,  0.054 sec
 * total energy  :   -27.8280328 Eh     change       -0.1364508E-04 Eh
   gradient norm :     0.0011605 Eh/α   predicted    -0.6500947E-05 ( -52.36%)
   displ. norm   :     0.1250975 α      lambda       -0.1014194E-04
   maximum displ.:     0.0912552 α      in ANC's #4, #2, #6, ...

........................................................................
.............................. CYCLE   57 ..............................
........................................................................

 iter      E             dE          RMSdq      gap      omega  full diag
   1    -28.1400104 -0.281400E+02  0.313E-02    1.74       0.0  T
   2    -28.1400104 -0.168567E-07  0.189E-02    1.74       1.3  T
   3    -28.1400082  0.224227E-05  0.115E-02    1.74       2.1  T
   4    -28.1400105 -0.238416E-05  0.132E-03    1.74      18.4  T
   5    -28.1400106 -0.185090E-07  0.642E-04    1.74      37.8  T
   6    -28.1400106 -0.431859E-08  0.182E-04    1.74     133.0  T
     SCC iter.                  ...        0 min,  0.498 sec
     gradient                   ...        0 min,  0.108 sec
 * total energy  :   -27.8280415 Eh     change       -0.8706903E-05 Eh
   gradient norm :     0.0019049 Eh/α   predicted    -0.5106886E-05 ( -41.35%)
   displ. norm   :     0.0585089 α      lambda       -0.1008450E-04
   maximum displ.:     0.0328783 α      in ANC's #4, #2, #1, ...

........................................................................
.............................. CYCLE   58 ..............................
........................................................................

 iter      E             dE          RMSdq      gap      omega  full diag
   1    -28.1406121 -0.281406E+02  0.214E-02    1.74       0.0  T
   2    -28.1406124 -0.271714E-06  0.122E-02    1.74       2.0  T
   3    -28.1406120  0.420942E-06  0.913E-03    1.74       2.7  T
   4    -28.1406126 -0.654274E-06  0.333E-03    1.74       7.3  T
   5    -28.1406128 -0.147500E-06  0.132E-03    1.74      18.3  T
   6    -28.1406128 -0.145285E-07  0.329E-04    1.74      73.8  T
   7    -28.1406128 -0.185128E-09  0.124E-04    1.74     195.6  T
     SCC iter.                  ...        0 min,  0.457 sec
     gradient                   ...        0 min,  0.073 sec
 * total energy  :   -27.8280463 Eh     change       -0.4761597E-05 Eh
   gradient norm :     0.0016297 Eh/α   predicted    -0.5048687E-05 (   6.03%)
   displ. norm   :     0.0929725 α      lambda       -0.1235379E-04
   maximum displ.:     0.0612691 α      in ANC's #2, #4, #5, ...

........................................................................
.............................. CYCLE   59 ..............................
........................................................................

 iter      E             dE          RMSdq      gap      omega  full diag
   1    -28.1408930 -0.281409E+02  0.290E-02    1.74       0.0  T
   2    -28.1408937 -0.642260E-06  0.174E-02    1.74       1.4  T
   3    -28.1408937 -0.509354E-07  0.115E-02    1.74       2.1  T
   4    -28.1408941 -0.414522E-06  0.269E-03    1.74       9.0  T
   5    -28.1408942 -0.596927E-07  0.176E-03    1.74      13.8  T
   6    -28.1408942 -0.483400E-07  0.455E-04    1.74      53.3  T
   7    -28.1408942 -0.965201E-09  0.184E-04    1.74     131.9  T
     SCC iter.                  ...        0 min,  0.594 sec
     gradient                   ...        0 min,  0.124 sec
 * total energy  :   -27.8280547 Eh     change       -0.8397630E-05 Eh
   gradient norm :     0.0018718 Eh/α   predicted    -0.6201291E-05 ( -26.15%)
   displ. norm   :     0.0354243 α      lambda       -0.5575675E-05
   maximum displ.:     0.0240914 α      in ANC's #2, #4, #8, ...

........................................................................
.............................. CYCLE   60 ..............................
........................................................................

 iter      E             dE          RMSdq      gap      omega  full diag
   1    -28.1404762 -0.281405E+02  0.125E-02    1.74       0.0  T
   2    -28.1404761  0.809809E-07  0.881E-03    1.74       2.8  T
   3    -28.1404761  0.162262E-07  0.642E-03    1.74       3.8  T
   4    -28.1404764 -0.358738E-06  0.180E-03    1.74      13.5  T
   5    -28.1404765 -0.548445E-07  0.462E-04    1.74      52.5  T
   6    -28.1404765 -0.103933E-08  0.199E-04    1.74     122.1  T
     SCC iter.                  ...        0 min,  0.568 sec
     gradient                   ...        0 min,  0.002 sec
 * total energy  :   -27.8280602 Eh     change       -0.5556062E-05 Eh
   gradient norm :     0.0012507 Eh/α   predicted    -0.2788877E-05 ( -49.80%)
   displ. norm   :     0.0384046 α      lambda       -0.6969547E-05
   maximum displ.:     0.0254549 α      in ANC's #4, #1, #2, ...

........................................................................
.............................. CYCLE   61 ..............................
........................................................................

 iter      E             dE          RMSdq      gap      omega  full diag
   1    -28.1407540 -0.281408E+02  0.162E-02    1.74       0.0  T
   2    -28.1407537  0.223403E-06  0.120E-02    1.74       2.0  T
   3    -28.1407543 -0.511407E-06  0.775E-03    1.74       3.1  T
   4    -28.1407547 -0.449935E-06  0.259E-03    1.74       9.4  T
   5    -28.1407548 -0.108932E-06  0.816E-04    1.74      29.7  T
   6    -28.1407548 -0.269258E-08  0.265E-04    1.74      91.4  T
     SCC iter.                  ...        0 min,  0.602 sec
     gradient                   ...        0 min,  0.107 sec
 * total energy  :   -27.8280646 Eh     change       -0.4399582E-05 Eh
   gradient norm :     0.0011714 Eh/α   predicted    -0.3488036E-05 ( -20.72%)
   displ. norm   :     0.0819818 α      lambda       -0.4732750E-05
   maximum displ.:     0.0564700 α      in ANC's #2, #4, #6, ...

........................................................................
.............................. CYCLE   62 ..............................
........................................................................

 iter      E             dE          RMSdq      gap      omega  full diag
   1    -28.1403587 -0.281404E+02  0.215E-02    1.74       0.0  T
   2    -28.1403588 -0.111401E-06  0.129E-02    1.74       1.9  T
   3    -28.1403584  0.327522E-06  0.623E-03    1.74       3.9  T
   4    -28.1403588 -0.355194E-06  0.150E-03    1.74      16.2  T
   5    -28.1403588 -0.571517E-08  0.114E-03    1.74      21.3  T
   6    -28.1403588 -0.214417E-07  0.246E-04    1.74      98.6  T
   7    -28.1403588 -0.302411E-09  0.115E-04    1.74     211.3  T
     SCC iter.                  ...        0 min,  0.543 sec
     gradient                   ...        0 min,  0.050 sec
 * total energy  :   -27.8280688 Eh     change       -0.4121407E-05 Eh
   gradient norm :     0.0011886 Eh/α   predicted    -0.2374976E-05 ( -42.37%)
   displ. norm   :     0.0411512 α      lambda       -0.4012732E-05
   maximum displ.:     0.0295029 α      in ANC's #2, #5, #1, ...

........................................................................
.............................. CYCLE   63 ..............................
........................................................................

 iter      E             dE          RMSdq      gap      omega  full diag
   1    -28.1405152 -0.281405E+02  0.116E-02    1.74       0.0  T
   2    -28.1405152  0.504091E-08  0.696E-03    1.74       3.5  T
   3    -28.1405149  0.278686E-06  0.559E-03    1.74       4.3  T
   4    -28.1405153 -0.333834E-06  0.163E-03    1.74      14.9  T
   5    -28.1405153 -0.454244E-07  0.501E-04    1.74      48.4  T
   6    -28.1405153 -0.943803E-09  0.132E-04    1.74     183.3  T
     SCC iter.                  ...        0 min,  0.443 sec
     gradient                   ...        0 min,  0.046 sec
 * total energy  :   -27.8280732 Eh     change       -0.4495055E-05 Eh
   gradient norm :     0.0011572 Eh/α   predicted    -0.2009914E-05 ( -55.29%)
   displ. norm   :     0.0951659 α      lambda       -0.1011068E-04
   maximum displ.:     0.0577792 α      in ANC's #2, #5, #1, ...

........................................................................
.............................. CYCLE   64 ..............................
........................................................................

 iter      E             dE          RMSdq      gap      omega  full diag
   1    -28.1407552 -0.281408E+02  0.312E-02    1.74       0.0  T
   2    -28.1407554 -0.188460E-06  0.183E-02    1.74       1.3  T
   3    -28.1407554  0.352967E-07  0.136E-02    1.74       1.8  T
   4    -28.1407561 -0.662680E-06  0.575E-03    1.74       4.2  T
   5    -28.1407567 -0.602384E-06  0.162E-03    1.74      15.0  T
   6    -28.1407567 -0.105672E-07  0.336E-04    1.74      72.2  T
   7    -28.1407567 -0.699242E-09  0.140E-04    1.74     173.2  T
     SCC iter.                  ...        0 min,  0.477 sec
     gradient                   ...        0 min,  0.044 sec
 * total energy  :   -27.8280834 Eh     change       -0.1014904E-04 Eh
   gradient norm :     0.0012690 Eh/α   predicted    -0.5074012E-05 ( -50.01%)
   displ. norm   :     0.1180943 α      lambda       -0.9855551E-05
   maximum displ.:     0.0596207 α      in ANC's #2, #5, #1, ...

........................................................................
.............................. CYCLE   65 ..............................
........................................................................

 iter      E             dE          RMSdq      gap      omega  full diag
   1    -28.1408596 -0.281409E+02  0.374E-02    1.74       0.0  T
   2    -28.1408600 -0.391657E-06  0.204E-02    1.74       1.2  T
   3    -28.1408596  0.379153E-06  0.160E-02    1.74       1.5  T
   4    -28.1408607 -0.103203E-05  0.601E-03    1.74       4.0  T
   5    -28.1408613 -0.640377E-06  0.218E-03    1.74      11.1  T
   6    -28.1408613 -0.292428E-07  0.444E-04    1.74      54.6  T
   7    -28.1408613 -0.158699E-08  0.165E-04    1.74     146.7  T
     SCC iter.                  ...        0 min,  0.657 sec
     gradient                   ...        0 min,  0.080 sec
 * total energy  :   -27.8280927 Eh     change       -0.9275783E-05 Eh
   gradient norm :     0.0016855 Eh/α   predicted    -0.4956890E-05 ( -46.56%)
   displ. norm   :     0.1539615 α      lambda       -0.9334964E-05
   maximum displ.:     0.0840245 α      in ANC's #5, #2, #1, ...

........................................................................
.............................. CYCLE   66 ..............................
........................................................................

 iter      E             dE          RMSdq      gap      omega  full diag
   1    -28.1400835 -0.281401E+02  0.430E-02    1.75       0.0  T
   2    -28.1400838 -0.328289E-06  0.242E-02    1.75       1.0  T
   3    -28.1400833  0.564324E-06  0.948E-03    1.75       2.6  T
   4    -28.1400839 -0.648934E-06  0.321E-03    1.75       7.6  T
   5    -28.1400840 -0.356620E-07  0.196E-03    1.75      12.4  T
   6    -28.1400840 -0.458381E-07  0.530E-04    1.75      45.8  T
   7    -28.1400840 -0.352743E-08  0.155E-04    1.75     156.5  T
     SCC iter.                  ...        0 min,  0.719 sec
     gradient                   ...        0 min,  0.025 sec
 * total energy  :   -27.8280959 Eh     change       -0.3254901E-05 Eh
   gradient norm :     0.0019852 Eh/α   predicted    -0.4716422E-05 (  44.90%)
   displ. norm   :     0.1153410 α      lambda       -0.1698034E-04
   maximum displ.:     0.0825321 α      in ANC's #4, #2, #5, ...
 * RMSD in coord.:     0.4712120 α      energy gain  -0.7956370E-03 Eh

generating ANC from exact Hessian ...
Using Lindh-Hessian (1995)
 Shifting diagonal of input Hessian by    7.3929762498019889E-003
 Lowest  eigenvalues of input Hessian
    0.000000    0.000000    0.000000    0.000000    0.000000    0.000000
    0.010000    0.011681    0.013149    0.013429    0.015917    0.019970
    0.022575    0.031139    0.033540    0.050263    0.051337    0.068770
 Highest eigenvalues
    1.907863    2.044106    2.332674    3.330461    3.639309    6.684327


........................................................................
.............................. CYCLE   67 ..............................
........................................................................

 iter      E             dE          RMSdq      gap      omega  full diag
   1    -28.1410262 -0.281410E+02  0.355E-02    1.75       0.0  T
   2    -28.1410270 -0.749323E-06  0.205E-02    1.75       1.2  T
   3    -28.1410267  0.307193E-06  0.738E-03    1.75       3.3  T
   4    -28.1410271 -0.403773E-06  0.287E-03    1.75       8.5  T
   5    -28.1410271 -0.411858E-07  0.101E-03    1.75      24.1  T
   6    -28.1410271  0.115459E-08  0.806E-04    1.75      30.1  T
   7    -28.1410271 -0.946295E-08  0.209E-04    1.75     115.8  T
     SCC iter.                  ...        0 min,  0.663 sec
     gradient                   ...        0 min,  0.107 sec
 * total energy  :   -27.8280869 Eh     change        0.8984203E-05 Eh
   gradient norm :     0.0042228 Eh/α   predicted     0.0000000E+00 (-100.00%)
   displ. norm   :     0.0177164 α      lambda       -0.3372546E-04
   maximum displ.:     0.0108418 α      in ANC's #1, #9, #11, ...

........................................................................
.............................. CYCLE   68 ..............................
........................................................................

 iter      E             dE          RMSdq      gap      omega  full diag
   1    -28.1407460 -0.281407E+02  0.184E-02    1.75       0.0  T
   2    -28.1407463 -0.270000E-06  0.952E-03    1.75       2.5  T
   3    -28.1407459  0.377980E-06  0.645E-03    1.75       3.8  T
   4    -28.1407464 -0.412181E-06  0.254E-03    1.75       9.6  T
   5    -28.1407464 -0.795605E-07  0.106E-03    1.75      23.0  T
   6    -28.1407464 -0.695211E-08  0.377E-04    1.75      64.3  T
   7    -28.1407464 -0.523741E-09  0.116E-04    1.75     208.4  T
     SCC iter.                  ...        0 min,  0.543 sec
     gradient                   ...        0 min,  0.059 sec
 * total energy  :   -27.8281066 Eh     change       -0.1969230E-04 Eh
   gradient norm :     0.0010061 Eh/α   predicted    -0.1686870E-04 ( -14.34%)
   displ. norm   :     0.0206629 α      lambda       -0.4162775E-05
   maximum displ.:     0.0130905 α      in ANC's #1, #5, #4, ...

........................................................................
.............................. CYCLE   69 ..............................
........................................................................

 iter      E             dE          RMSdq      gap      omega  full diag
   1    -28.1406222 -0.281406E+02  0.151E-02    1.75       0.0  T
   2    -28.1406224 -0.114501E-06  0.735E-03    1.75       3.3  T
   3    -28.1406224 -0.256307E-07  0.596E-03    1.75       4.1  T
   4    -28.1406226 -0.247814E-06  0.205E-03    1.75      11.8  T
   5    -28.1406227 -0.642889E-07  0.101E-03    1.75      24.1  T
   6    -28.1406227 -0.656958E-08  0.253E-04    1.75      96.0  T
   7    -28.1406227 -0.307246E-09  0.115E-04    1.75     210.5  T
     SCC iter.                  ...        0 min,  0.639 sec
     gradient                   ...        0 min,  0.002 sec
 * total energy  :   -27.8281094 Eh     change       -0.2800717E-05 Eh
   gradient norm :     0.0008119 Eh/α   predicted    -0.2079976E-05 ( -25.73%)
   displ. norm   :     0.0167423 α      lambda       -0.1710477E-05
   maximum displ.:     0.0132659 α      in ANC's #1, #5, #4, ...

   *** GEOMETRY OPTIMIZATION CONVERGED AFTER 69 ITERATIONS ***

------------------------------------------------------------------------
 total energy gain   :        -0.9953554 Eh     -624.5950 kcal/mol
 total RMSD          :         2.4783802 a0        1.3115 Å
 total power (kW/mol):       -37.8739902 (step)  -67.4764 (real)
------------------------------------------------------------------------

 ANCopt (total)                0 d,  0 h,  0 min, 38.729 sec
 optimizer setup                ...        0 min,  0.000 sec (  0.000%)
 model hessian                  ...        0 min,  0.012 sec (  0.031%)
 ANC generation                 ...        0 min,  0.002 sec (  0.005%)
 coordinate transformation      ...        0 min,  0.001 sec (  0.001%)
 single point calculation       ...        0 min, 38.523 sec ( 99.467%)
 optimization log               ...        0 min,  0.007 sec (  0.019%)
 hessian update                 ...        0 min,  0.134 sec (  0.347%)
 rational function              ...        0 min,  0.024 sec (  0.063%)

================
 final structure:
================
17
 xtb: 6.7.1 (edcfbbe)
C           -1.40773681275759       -1.58962985031665       -0.74317541662033
C           -1.05401104448681       -0.38924329647435        0.02586490130189
C           -1.51274964553788        0.88868970160977        0.12636266818002
C           -0.55597378287840        1.83221300335548        0.53082496673745
N            0.69465855982356        1.43008548096833        0.55612629389569
N            0.82760782526392        0.14894636770195        0.40502472015033
C            2.05542349489911       -0.43377218331433       -0.03455034504013
S           -0.11131328515557       -0.94495802842979        1.92415338963252
O           -0.52596326350242        0.06707510758963        2.88306353841649
H           -2.18917410621004       -2.15359325510047       -0.23038196740810
H           -0.54369541356348       -2.24284332785721       -0.85412120187880
H           -1.76431264923479       -1.31144970982229       -1.73635238216083
H           -2.48696612047222        1.20252034260858       -0.20465562356057
H           -0.75645352555873        2.87468245126187        0.69377745161537
H            1.89290706035238       -1.49447625687039       -0.21698976040401
H            2.83064106323478       -0.31743643547754        0.72714853001125
H            2.38854752577947        0.04681471855953       -0.95685956286527

 Bond Distances (Angstroems)
 ---------------------------
C1-C2=1.4688         C1-H10=1.0916        C1-H11=1.0888        C1-H12=1.0913        C2-C1=1.4688         C2-C3=1.3615         
C2-S8=2.1911         C3-C2=1.3615         C3-C4=1.4033         C3-H13=1.0757        C4-C3=1.4033         C4-N5=1.3139         
C4-H14=1.0740        N5-C4=1.3139         N5-N6=1.2969         N6-N5=1.2969         N6-C7=1.4284         N6-S8=2.0943         
C7-N6=1.4284         C7-H15=1.0885        C7-H16=1.0930        C7-H17=1.0921        S8-C2=2.1911         S8-N6=2.0943         
S8-O9=1.4545         O9-S8=1.4545         H10-C1=1.0916        H11-C1=1.0888        H12-C1=1.0913        H13-C3=1.0757        
H14-C4=1.0740        H15-C7=1.0885        H16-C7=1.0930        H17-C7=1.0921        
 C  H  Rav=1.0869 sigma=0.0071  Rmin=1.0740  Rmax=1.0930     8
 C  C  Rav=1.4112 sigma=0.0442  Rmin=1.3615  Rmax=1.4688     3
 N  C  Rav=1.3712 sigma=0.0572  Rmin=1.3139  Rmax=1.4284     2
 N  N  Rav=1.2969 sigma=0.0000  Rmin=1.2969  Rmax=1.2969     1
 S  C  Rav=2.1911 sigma=0.0000  Rmin=2.1911  Rmax=2.1911     1
 S  N  Rav=2.0943 sigma=0.0000  Rmin=2.0943  Rmax=2.0943     1
 S  O  Rav=1.4545 sigma=0.0000  Rmin=1.4545  Rmax=1.4545     1

 selected bond angles (degree)
 --------------------
H10-C1-C2=110.40               H11-C1-C2=110.64               H11-C1-H10=107.82              H12-C1-C2=110.30               
H12-C1-H10=108.98              H12-C1-H11=108.63              C3-C2-C1=136.43                S8-C2-C1=110.48                
S8-C2-C3=108.61                C4-C3-C2=115.00                H13-C3-C2=123.80               H13-C3-C4=120.66               
N5-C4-C3=116.66                H14-C4-C3=124.69               H14-C4-N5=118.15               N6-N5-C4=113.43                
C7-N6-N5=121.80                S8-N6-N5=112.68                S8-N6-C7=113.30                H15-C7-N6=108.71               
H16-C7-N6=110.60               H16-C7-H15=109.05              H17-C7-N6=110.03               H17-C7-H15=109.44              
H17-C7-H16=108.99              N6-S8-C2= 55.39                O9-S8-C2=105.79                O9-S8-N6=104.04                

 selected dihedral angles (degree)
 ---------------------------------
C3-C2-C1-H10=273.87           C3-C2-C1-H11=154.59           C3-C2-C1-H12= 34.37           S8-C2-C1-H10= 66.36           
S8-C2-C1-H11=307.09           S8-C2-C1-H12=186.87           C4-C3-C2-C1=206.63            C4-C3-C2-S8= 53.79            
H13-C3-C2-C1= 18.27           H13-C3-C2-S8=225.43           N5-C4-C3-C2= 10.56            N5-C4-C3-H13=198.64           
H14-C4-C3-C2=182.28           H14-C4-C3-H13= 10.36          N6-N5-C4-C3=349.54            N6-N5-C4-H14=177.27           
C7-N6-N5-C4=158.90            S8-N6-N5-C4=298.67            H15-C7-N6-N5=187.62           H15-C7-N6-S8= 48.08           
H16-C7-N6-N5= 67.92           H16-C7-N6-S8=288.38           H17-C7-N6-N5=307.46           H17-C7-N6-S8=167.91           
N6-S8-C2-C1=117.32            N6-S8-C2-C3=277.69            O9-S8-C2-C1=213.70            O9-S8-C2-C3= 14.08            
C2-S8-N6-N5= 91.91            C2-S8-N6-C7=235.21            O9-S8-N6-N5=352.23            O9-S8-N6-C7=135.53            
           -------------------------------------------------
          |                Final Singlepoint                |
           -------------------------------------------------

          ...................................................
          :                      SETUP                      :
          :.................................................:
          :  # basis functions                  50          :
          :  # atomic orbitals                  49          :
          :  # shells                           27          :
          :  # electrons                        50          :
          :  max. iterations                   250          :
          :  Hamiltonian                  GFN2-xTB          :
          :  restarted?                      false          :
          :  GBSA solvation                  false          :
          :  PC potential                    false          :
          :  electronic temp.          300.0000000     K    :
          :  accuracy                    1.0000000          :
          :  -> integral cutoff          0.2500000E+02      :
          :  -> integral neglect         0.1000000E-07      :
          :  -> SCF convergence          0.1000000E-05 Eh   :
          :  -> wf. convergence          0.1000000E-03 e    :
          :  Broyden damping             0.4000000          :
          :  net charge                          0          :
          :  unpaired electrons                  0          :
          ...................................................

 iter      E             dE          RMSdq      gap      omega  full diag
   1    -28.1406227 -0.281406E+02  0.580E-05    1.75       0.0  T
   2    -28.1406227 -0.154188E-11  0.397E-05    1.75     610.4  T
   3    -28.1406227  0.671818E-11  0.342E-05    1.75     709.4  T

   *** convergence criteria satisfied after 3 iterations ***

         #    Occupation            Energy/Eh            Energy/eV
      -------------------------------------------------------------
         1        2.0000           -0.7392739             -20.1167
       ...           ...                  ...                  ...
        19        2.0000           -0.4735408             -12.8857
        20        2.0000           -0.4613631             -12.5543
        21        2.0000           -0.4554742             -12.3941
        22        2.0000           -0.4189854             -11.4012
        23        2.0000           -0.4002553             -10.8915
        24        2.0000           -0.3744769             -10.1900
        25        2.0000           -0.3398797              -9.2486 (HOMO)
        26                         -0.2755727              -7.4987 (LUMO)
        27                         -0.2417973              -6.5796
        28                         -0.2344636              -6.3801
        29                         -0.1562952              -4.2530
        30                         -0.1343470              -3.6558
       ...                                ...                  ...
        49                          0.9004517              24.5025
      -------------------------------------------------------------
                  HL-Gap            0.0643070 Eh            1.7499 eV
             Fermi-level           -0.3077262 Eh           -8.3737 eV

 SCC (total)                   0 d,  0 h,  0 min,  0.097 sec
 SCC setup                      ...        0 min,  0.000 sec (  0.081%)
 Dispersion                     ...        0 min,  0.000 sec (  0.044%)
 classical contributions        ...        0 min,  0.000 sec (  0.013%)
 integral evaluation            ...        0 min,  0.001 sec (  0.687%)
 iterations                     ...        0 min,  0.095 sec ( 97.410%)
 molecular gradient             ...        0 min,  0.002 sec (  1.656%)
 printout                       ...        0 min,  0.000 sec (  0.097%)

         :::::::::::::::::::::::::::::::::::::::::::::::::::::
         ::                     SUMMARY                     ::
         :::::::::::::::::::::::::::::::::::::::::::::::::::::
         :: total energy             -27.828109438156 Eh    ::
         :: gradient norm              0.000812853587 Eh/a0 ::
         :: HOMO-LUMO gap              1.749883715274 eV    ::
         ::.................................................::
         :: SCC energy               -28.140541443879 Eh    ::
         :: -> isotropic ES            0.037962354241 Eh    ::
         :: -> anisotropic ES         -0.002242360984 Eh    ::
         :: -> anisotropic XC          0.015085005553 Eh    ::
         :: -> dispersion             -0.015760652955 Eh    ::
         :: repulsion energy           0.311880362699 Eh    ::
         :: add. restraining           0.000551643024 Eh    ::
         :: total charge               0.000000000000 e     ::
         :::::::::::::::::::::::::::::::::::::::::::::::::::::

           -------------------------------------------------
          |                Property Printout                |
           -------------------------------------------------

    * Orbital Energies and Occupations

         #    Occupation            Energy/Eh            Energy/eV
      -------------------------------------------------------------
         1        2.0000           -0.7392739             -20.1167
       ...           ...                  ...                  ...
        13        2.0000           -0.5095795             -13.8664
        14        2.0000           -0.5043180             -13.7232
        15        2.0000           -0.4999609             -13.6046
        16        2.0000           -0.4913408             -13.3701
        17        2.0000           -0.4900435             -13.3348
        18        2.0000           -0.4857216             -13.2172
        19        2.0000           -0.4735408             -12.8857
        20        2.0000           -0.4613631             -12.5543
        21        2.0000           -0.4554742             -12.3941
        22        2.0000           -0.4189854             -11.4012
        23        2.0000           -0.4002553             -10.8915
        24        2.0000           -0.3744769             -10.1900
        25        2.0000           -0.3398797              -9.2486 (HOMO)
        26                         -0.2755727              -7.4987 (LUMO)
        27                         -0.2417973              -6.5796
        28                         -0.2344636              -6.3801
        29                         -0.1562952              -4.2530
        30                         -0.1343470              -3.6558
        31                          0.0029479               0.0802
        32                          0.0512038               1.3933
        33                          0.0572200               1.5570
        34                          0.0939733               2.5571
        35                          0.1087426               2.9590
        36                          0.1177778               3.2049
       ...                                ...                  ...
        49                          0.9004517              24.5025
      -------------------------------------------------------------
                  HL-Gap            0.0643070 Eh            1.7499 eV
             Fermi-level           -0.3077262 Eh           -8.3737 eV

     #   Z          covCN         q      C6AA      α(0)
     1   6 C        3.753    -0.106    22.582     6.776
     2   6 C        3.119     0.000    27.851     8.644
     3   6 C        2.915    -0.066    29.637     8.927
     4   6 C        2.946     0.045    26.981     8.519
     5   7 N        1.925    -0.165    25.362     7.467
     6   7 N        3.109    -0.007    21.379     6.867
     7   6 C        3.693    -0.051    21.682     6.662
     8  16 S        2.397     0.265   130.702    19.242
     9   8 O        0.860    -0.409    21.869     6.270
    10   1 H        0.924     0.065     2.139     2.287
    11   1 H        0.925     0.061     2.189     2.314
    12   1 H        0.924     0.061     2.186     2.312
    13   1 H        0.926     0.054     2.275     2.359
    14   1 H        0.926     0.047     2.359     2.402
    15   1 H        0.925     0.064     2.158     2.297
    16   1 H        0.924     0.071     2.074     2.252
    17   1 H        0.924     0.071     2.076     2.253

 Mol. C6AA /au·bohr⁶  :       3936.569426
 Mol. C8AA /au·bohr⁸  :     104197.319899
 Mol. α(0) /au        :         97.850599


Wiberg/Mayer (AO) data.
largest (>0.10) Wiberg bond orders for each atom

 ---------------------------------------------------------------------------
     #   Z sym  total        # sym  WBO       # sym  WBO       # sym  WBO
 ---------------------------------------------------------------------------
     1   6 C    3.995 --     2 C    1.059    11 H    0.967    12 H    0.964
                            10 H    0.958
     2   6 C    3.942 --     3 C    1.503     1 C    1.059     8 S    0.603
                             6 N    0.443     5 N    0.168
     3   6 C    3.977 --     2 C    1.503     4 C    1.328    13 H    0.936
     4   6 C    3.976 --     5 N    1.456     3 C    1.328    14 H    0.965
     5   7 N    3.168 --     4 C    1.456     6 N    1.291     2 C    0.168
                             8 S    0.138
     6   7 N    3.609 --     5 N    1.291     7 C    1.015     8 S    0.585
                             2 C    0.443     9 O    0.107
     7   6 C    3.971 --     6 N    1.015    15 H    0.976    17 H    0.967
                            16 H    0.964
     8  16 S    3.424 --     9 O    1.861     2 C    0.603     6 N    0.585
                             5 N    0.138
     9   8 O    2.155 --     8 S    1.861     6 N    0.107
    10   1 H    0.995 --     1 C    0.958
    11   1 H    0.996 --     1 C    0.967
    12   1 H    0.996 --     1 C    0.964
    13   1 H    0.996 --     3 C    0.936
    14   1 H    0.998 --     4 C    0.965
    15   1 H    0.996 --     7 C    0.976
    16   1 H    0.993 --     7 C    0.964
    17   1 H    0.995 --     7 C    0.967
 ---------------------------------------------------------------------------

Topologies differ in total number of bonds
Writing topology from bond orders to xtbtopo.mol

molecular dipole:
                 x           y           z       tot (Debye)
 q only:        0.419      -1.080      -1.606
   full:        0.172      -1.038      -1.530       4.719
molecular quadrupole (traceless):
                xx          xy          yy          xz          yz          zz
 q only:        6.707      -1.320       5.233       3.210      -2.211     -11.941
  q+dip:        7.219      -2.284       4.363       3.734      -2.137     -11.582
   full:        6.841      -2.249       3.780       3.146      -2.546     -10.621

           -------------------------------------------------
          |                Geometry Summary                 |
           -------------------------------------------------

      molecular mass/u    :      144.1948042
   center of mass at/Å    :       -0.1457961      -0.0473667       0.8138285
  moments of inertia/u·Å² :        0.3326697E+03   0.3370676E+03   0.3579149E+03
rotational constants/cm⁻¹ :        0.5067378E-01   0.5001262E-01   0.4709955E-01

 * 15 selected distances

     #   Z          #   Z                                           value/Å
     1   6 C        2   6 C                                       1.4688340 (max)
     2   6 C        3   6 C                                       1.3614896
     3   6 C        4   6 C                                       1.4032984
     4   6 C        5   7 N                                       1.3139362
     5   7 N        6   7 N                                       1.2968519
     6   7 N        7   6 C                                       1.4283973
     8  16 S        9   8 O                                       1.4545290
     1   6 C       10   1 H                                       1.0916301
     1   6 C       11   1 H                                       1.0888363
     1   6 C       12   1 H                                       1.0912980
     3   6 C       13   1 H                                       1.0757141
     4   6 C       14   1 H                                       1.0740058 (min)
     7   6 C       15   1 H                                       1.0884802
     7   6 C       16   1 H                                       1.0930150
     7   6 C       17   1 H                                       1.0920576

 * 5 distinct bonds (by element types)

   Z      Z             #   av. dist./Å        max./Å        min./Å
   1 H    6 C           8     1.0868796     1.0930150     1.0740058
   6 C    6 C           3     1.4112073     1.4688340     1.3614896
   6 C    7 N           2     1.3711667     1.4283973     1.3139362
   7 N    7 N           1     1.2968519     1.2968519     1.2968519
   8 O   16 S           1     1.4545290     1.4545290     1.4545290


optimized geometry written to: xtbopt.xyz


           -------------------------------------------------
          | TOTAL ENERGY              -27.828109438156 Eh   |
          | GRADIENT NORM               0.000812853587 Eh/α |
          | HOMO-LUMO GAP               1.749883715274 eV   |
           -------------------------------------------------

------------------------------------------------------------------------
 * finished run on 2026/08/20 at 02:50:46.395     
------------------------------------------------------------------------
 total:
 * wall-time:     0 d,  0 h,  0 min, 39.841 sec
 *  cpu-time:     0 d,  0 h,  6 min,  2.592 sec
 * ratio c/w:     9.101 speedup
 SCF:
 * wall-time:     0 d,  0 h,  0 min,  0.906 sec
 *  cpu-time:     0 d,  0 h,  0 min, 13.442 sec
 * ratio c/w:    14.844 speedup
 ANC optimizer:
 * wall-time:     0 d,  0 h,  0 min, 38.846 sec
 *  cpu-time:     0 d,  0 h,  5 min, 48.043 sec
 * ratio c/w:     8.960 speedup

