17
 energy: -27.828109438156 gnorm: 0.000812853587 xtb: 6.7.1 (edcfbbe)
C           -1.40773681275759       -1.58962985031665       -0.74317541662033
C           -1.05401104448681       -0.38924329647435        0.02586490130189
C           -1.51274964553788        0.88868970160977        0.12636266818002
C           -0.55597378287840        1.83221300335548        0.53082496673745
N            0.69465855982356        1.43008548096833        0.55612629389569
N            0.82760782526392        0.14894636770195        0.40502472015033
C            2.05542349489911       -0.43377218331433       -0.03455034504013
S           -0.11131328515557       -0.94495802842979        1.92415338963252
O           -0.52596326350242        0.06707510758963        2.88306353841649
H           -2.18917410621004       -2.15359325510047       -0.23038196740810
H           -0.54369541356348       -2.24284332785721       -0.85412120187880
H           -1.76431264923479       -1.31144970982229       -1.73635238216083
H           -2.48696612047222        1.20252034260858       -0.20465562356057
H           -0.75645352555873        2.87468245126187        0.69377745161537
H            1.89290706035238       -1.49447625687039       -0.21698976040401
H            2.83064106323478       -0.31743643547754        0.72714853001125
H            2.38854752577947        0.04681471855953       -0.95685956286527
