      -----------------------------------------------------------      
     |                   =====================                   |     
     |                           x T B                           |     
     |                   =====================                   |     
     |                         S. Grimme                         |     
     |          Mulliken Center for Theoretical Chemistry        |     
     |                    University of Bonn                     |     
      -----------------------------------------------------------      

   * xtb version 6.7.1 (edcfbbe) compiled by 'conda@3ef47c1a292c' on 2024-11-25

   xtb is free software: you can redistribute it and/or modify it under
   the terms of the GNU Lesser General Public License as published by
   the Free Software Foundation, either version 3 of the License, or
   (at your option) any later version.
   
   xtb is distributed in the hope that it will be useful,
   but WITHOUT ANY WARRANTY; without even the implied warranty of
   MERCHANTABILITY or FITNESS FOR A PARTICULAR PURPOSE.  See the
   GNU Lesser General Public License for more details.
   
   Cite this work as:
   * C. Bannwarth, E. Caldeweyher, S. Ehlert, A. Hansen, P. Pracht,
     J. Seibert, S. Spicher, S. Grimme, WIREs Comput. Mol. Sci., 2020, 11,
     e01493. DOI: 10.1002/wcms.1493
   
   for GFN2-xTB:
   * C. Bannwarth, S. Ehlert and S. Grimme., J. Chem. Theory Comput., 2019,
     15, 1652-1671. DOI: 10.1021/acs.jctc.8b01176
   for GFN1-xTB:
   * S. Grimme, C. Bannwarth, P. Shushkov, J. Chem. Theory Comput., 2017,
     13, 1989-2009. DOI: 10.1021/acs.jctc.7b00118
   for GFN0-xTB:
   * P. Pracht, E. Caldeweyher, S. Ehlert, S. Grimme, ChemRxiv, 2019, preprint.
     DOI: 10.26434/chemrxiv.8326202.v1
   for GFN-FF:
   * S. Spicher and S. Grimme, Angew. Chem. Int. Ed., 2020, 59, 15665-15673.
     DOI: 10.1002/anie.202004239
   
   for ALPB and GBSA implicit solvation:
   * S. Ehlert, M. Stahn, S. Spicher, S. Grimme, J. Chem. Theory Comput.,
     2021, 17, 4250-4261. DOI: 10.1021/acs.jctc.1c00471
   
   for ddCOSMO and CPCM-X implicit solvation:
   * M. Stahn, S. Ehlert, S. Grimme, J. Phys. Chem. A,
     2023, XX, XXXX-XXXX. DOI: 10.1021/acs.jpca.3c04382
   
   for DFT-D4:
   * E. Caldeweyher, C. Bannwarth and S. Grimme, J. Chem. Phys., 2017,
     147, 034112. DOI: 10.1063/1.4993215
   * E. Caldeweyher, S. Ehlert, A. Hansen, H. Neugebauer, S. Spicher,
     C. Bannwarth and S. Grimme, J. Chem. Phys., 2019, 150, 154122.
     DOI: 10.1063/1.5090222
   * E. Caldeweyher, J.-M. Mewes, S. Ehlert and S. Grimme, Phys. Chem. Chem. Phys.
     2020, 22, 8499-8512. DOI: 10.1039/D0CP00502A
   
   for sTDA-xTB:
   * S. Grimme and C. Bannwarth, J. Chem. Phys., 2016, 145, 054103.
     DOI: 10.1063/1.4959605
   
   in the mass-spec context:
   * V. Asgeirsson, C. Bauer and S. Grimme, Chem. Sci., 2017, 8, 4879.
     DOI: 10.1039/c7sc00601b
   * J. Koopman and S. Grimme, ACS Omega 2019, 4, 12, 15120-15133.
     DOI: 10.1021/acsomega.9b02011
   
   for metadynamics refer to:
   * S. Grimme, J. Chem. Theory Comput., 2019, 155, 2847-2862
     DOI: 10.1021/acs.jctc.9b00143
   
   for SPH calculations refer to:
   * S. Spicher and S. Grimme, J. Chem. Theory Comput., 2021, 17, 1701-1714
     DOI: 10.1021/acs.jctc.0c01306
   
   for ONIOM refer to:
   * C. Plett, A. Katbashev, S. Ehlert, S. Grimme, M. Bursch,
     Phys. Chem. Chem. Phys., 2023, 25, 17860-17868. DOI: 10.1039/D3CP02178E
   
   for DIPRO refer to:
   * J. Kohn, N. Gildemeister, S. Grimme, D. Fazzi, A. Hansen,
     J. Chem. Phys., 2023, just accepted.
   
   for PTB refer to:
   * S. Grimme, M. Mueller, A. Hansen, J. Chem. Phys., 2023, 158, 124111.
     DOI: 10.1063/5.0137838
   
   with help from (in alphabetical order)
   P. Atkinson, C. Bannwarth, F. Bohle, G. Brandenburg, E. Caldeweyher
   M. Checinski, S. Dohm, S. Ehlert, S. Ehrlich, I. Gerasimov, C. Hölzer
   A. Katbashev, J. Kohn, J. Koopman, C. Lavigne, S. Lehtola, F. März, M. Müller,
   F. Musil, H. Neugebauer, J. Pisarek, C. Plett, P. Pracht, F. Pultar,
   J. Seibert, P. Shushkov, S. Spicher, M. Stahn, M. Steiner, T. Strunk,
   J. Stückrath, T. Rose, and J. Unsleber
   
 * started run on 2026/08/20 at 02:54:27.097     
   ID    Z sym.   atoms
    1    6 C      1-4, 7
    2    7 N      5, 6
    3   16 S      8
    4    8 O      9
    5    1 H      10-17

           -------------------------------------------------
          |                Calculation Setup                |
           -------------------------------------------------

          program call               : xtb ../../structures/pathway_A_TS_optimized.xyz --gfn 2 --namespace ts_sp
          calculation namespace      : ts_sp
          coordinate file            : ../../structures/pathway_A_TS_optimized.xyz
          omp threads                :                    16


           -------------------------------------------------
          |                 G F N 2 - x T B                 |
           -------------------------------------------------

        Reference                      10.1021/acs.jctc.8b01176
      * Hamiltonian:
        H0-scaling (s, p, d)           1.850000    2.230000    2.230000
        zeta-weighting                 0.500000
      * Dispersion:
        s8                             2.700000
        a1                             0.520000
        a2                             5.000000
        s9                             5.000000
      * Repulsion:
        kExp                           1.500000    1.000000
        rExp                           1.000000
      * Coulomb:
        alpha                          2.000000
        third order                    shell-resolved
        anisotropic                    true
        a3                             3.000000
        a5                             4.000000
        cn-shift                       1.200000
        cn-exp                         4.000000
        max-rad                        5.000000


          ...................................................
          :                      SETUP                      :
          :.................................................:
          :  # basis functions                  50          :
          :  # atomic orbitals                  49          :
          :  # shells                           27          :
          :  # electrons                        50          :
          :  max. iterations                   250          :
          :  Hamiltonian                  GFN2-xTB          :
          :  restarted?                      false          :
          :  GBSA solvation                  false          :
          :  PC potential                    false          :
          :  electronic temp.          300.0000000     K    :
          :  accuracy                    1.0000000          :
          :  -> integral cutoff          0.2500000E+02      :
          :  -> integral neglect         0.1000000E-07      :
          :  -> SCF convergence          0.1000000E-05 Eh   :
          :  -> wf. convergence          0.1000000E-03 e    :
          :  Broyden damping             0.4000000          :
          :  net charge                          0          :
          :  unpaired electrons                  0          :
          ...................................................

 iter      E             dE          RMSdq      gap      omega  full diag
   1    -28.0812884 -0.280813E+02  0.408E+00    3.15       0.0  T
   2    -28.1401078 -0.588194E-01  0.311E+00    2.38       1.0  T
   3    -28.1591915 -0.190836E-01  0.146E+00    2.64       1.0  T
   4    -28.1612164 -0.202494E-02  0.464E-01    2.55       1.0  T
   5    -28.1622797 -0.106335E-02  0.214E-01    2.52       1.0  T
   6    -28.1626907 -0.410996E-03  0.863E-02    2.55       1.0  T
   7    -28.1627848 -0.941045E-04  0.309E-02    2.54       1.0  T
   8    -28.1627840  0.846818E-06  0.169E-02    2.54       1.4  T
   9    -28.1627855 -0.151880E-05  0.670E-03    2.54       3.6  T
  10    -28.1627858 -0.304745E-06  0.265E-03    2.54       9.1  T
  11    -28.1627858 -0.626271E-08  0.859E-04    2.54      28.2  T
  12    -28.1627858 -0.132760E-08  0.353E-04    2.54      68.7  T

   *** convergence criteria satisfied after 12 iterations ***

         #    Occupation            Energy/Eh            Energy/eV
      -------------------------------------------------------------
         1        2.0000           -0.7638874             -20.7864
       ...           ...                  ...                  ...
        19        2.0000           -0.4731147             -12.8741
        20        2.0000           -0.4584429             -12.4749
        21        2.0000           -0.4527108             -12.3189
        22        2.0000           -0.4207766             -11.4499
        23        2.0000           -0.4041906             -10.9986
        24        2.0000           -0.3808538             -10.3636
        25        2.0000           -0.3484425              -9.4816 (HOMO)
        26                         -0.2550599              -6.9405 (LUMO)
        27                         -0.2213242              -6.0225
        28                         -0.1846430              -5.0244
        29                         -0.1600026              -4.3539
        30                         -0.1031431              -2.8067
       ...                                ...                  ...
        49                          0.9615463              26.1650
      -------------------------------------------------------------
                  HL-Gap            0.0933826 Eh            2.5411 eV
             Fermi-level           -0.3017512 Eh           -8.2111 eV

 SCC (total)                   0 d,  0 h,  0 min,  0.969 sec
 SCC setup                      ...        0 min,  0.006 sec (  0.579%)
 Dispersion                     ...        0 min,  0.016 sec (  1.701%)
 classical contributions        ...        0 min,  0.008 sec (  0.821%)
 integral evaluation            ...        0 min,  0.003 sec (  0.297%)
 iterations                     ...        0 min,  0.849 sec ( 87.553%)
 molecular gradient             ...        0 min,  0.088 sec (  9.032%)
 printout                       ...        0 min,  0.000 sec (  0.013%)

         :::::::::::::::::::::::::::::::::::::::::::::::::::::
         ::                     SUMMARY                     ::
         :::::::::::::::::::::::::::::::::::::::::::::::::::::
         :: total energy             -27.852713488977 Eh    ::
         :: gradient norm              0.001017835791 Eh/a0 ::
         :: HOMO-LUMO gap              2.541070012206 eV    ::
         ::.................................................::
         :: SCC energy               -28.162714263882 Eh    ::
         :: -> isotropic ES            0.043843761962 Eh    ::
         :: -> anisotropic ES          0.001425053897 Eh    ::
         :: -> anisotropic XC          0.014763785529 Eh    ::
         :: -> dispersion             -0.015857561743 Eh    ::
         :: repulsion energy           0.310000774905 Eh    ::
         :: add. restraining           0.000000000000 Eh    ::
         :: total charge               0.000000000000 e     ::
         :::::::::::::::::::::::::::::::::::::::::::::::::::::

           -------------------------------------------------
          |                Property Printout                |
           -------------------------------------------------

    * Orbital Energies and Occupations

         #    Occupation            Energy/Eh            Energy/eV
      -------------------------------------------------------------
         1        2.0000           -0.7638874             -20.7864
       ...           ...                  ...                  ...
        13        2.0000           -0.5133185             -13.9681
        14        2.0000           -0.5106080             -13.8944
        15        2.0000           -0.5047853             -13.7359
        16        2.0000           -0.4967530             -13.5173
        17        2.0000           -0.4905002             -13.3472
        18        2.0000           -0.4887294             -13.2990
        19        2.0000           -0.4731147             -12.8741
        20        2.0000           -0.4584429             -12.4749
        21        2.0000           -0.4527108             -12.3189
        22        2.0000           -0.4207766             -11.4499
        23        2.0000           -0.4041906             -10.9986
        24        2.0000           -0.3808538             -10.3636
        25        2.0000           -0.3484425              -9.4816 (HOMO)
        26                         -0.2550599              -6.9405 (LUMO)
        27                         -0.2213242              -6.0225
        28                         -0.1846430              -5.0244
        29                         -0.1600026              -4.3539
        30                         -0.1031431              -2.8067
        31                         -0.0066778              -0.1817
        32                          0.0517060               1.4070
        33                          0.0654772               1.7817
        34                          0.1046044               2.8464
        35                          0.1139659               3.1012
        36                          0.1527728               4.1572
       ...                                ...                  ...
        49                          0.9615463              26.1650
      -------------------------------------------------------------
                  HL-Gap            0.0933826 Eh            2.5411 eV
             Fermi-level           -0.3017512 Eh           -8.2111 eV

     #   Z          covCN         q      C6AA      α(0)
     1   6 C        3.771    -0.115    22.728     6.794
     2   6 C        3.596    -0.003    21.240     6.671
     3   6 C        2.962    -0.092    30.319     9.032
     4   6 C        2.956     0.047    26.945     8.514
     5   7 N        1.951    -0.226    26.771     7.673
     6   7 N        3.512     0.040    20.540     6.731
     7   6 C        3.719    -0.064    21.854     6.677
     8  16 S        2.839     0.387   126.268    18.913
     9   8 O        0.860    -0.434    22.370     6.341
    10   1 H        0.924     0.061     2.192     2.315
    11   1 H        0.925     0.049     2.331     2.388
    12   1 H        0.925     0.058     2.217     2.329
    13   1 H        0.926     0.038     2.475     2.460
    14   1 H        0.926     0.039     2.467     2.456
    15   1 H        0.925     0.062     2.177     2.308
    16   1 H        0.924     0.075     2.036     2.232
    17   1 H        0.924     0.079     1.989     2.206

 Mol. C6AA /au·bohr⁶  :       3869.291947
 Mol. C8AA /au·bohr⁸  :     101907.510626
 Mol. α(0) /au        :         96.038160


Wiberg/Mayer (AO) data.
largest (>0.10) Wiberg bond orders for each atom

 ---------------------------------------------------------------------------
     #   Z sym  total        # sym  WBO       # sym  WBO       # sym  WBO
 ---------------------------------------------------------------------------
     1   6 C    3.995 --     2 C    1.032    12 H    0.977    11 H    0.974
                            10 H    0.963
     2   6 C    3.940 --     3 C    1.357     1 C    1.032     8 S    0.820
                             6 N    0.450     5 N    0.151
     3   6 C    3.957 --     4 C    1.418     2 C    1.357    13 H    0.950
     4   6 C    3.978 --     5 N    1.430     3 C    1.418    14 H    0.965
     5   7 N    3.071 --     4 C    1.430     6 N    1.220     2 C    0.151
                             8 S    0.131
     6   7 N    3.664 --     5 N    1.220     7 C    0.999     8 S    0.755
                             2 C    0.450
     7   6 C    3.968 --     6 N    0.999    15 H    0.978    17 H    0.974
                            16 H    0.968
     8  16 S    3.775 --     9 O    1.883     2 C    0.820     6 N    0.755
                             5 N    0.131
     9   8 O    2.111 --     8 S    1.883
    10   1 H    0.996 --     1 C    0.963
    11   1 H    0.997 --     1 C    0.974
    12   1 H    0.997 --     1 C    0.977
    13   1 H    0.998 --     3 C    0.950
    14   1 H    0.998 --     4 C    0.965
    15   1 H    0.996 --     7 C    0.978
    16   1 H    0.993 --     7 C    0.968
    17   1 H    0.994 --     7 C    0.974
 ---------------------------------------------------------------------------
Note: The following floating-point exceptions are signalling: IEEE_UNDERFLOW_FLAG IEEE_DENORMAL
normal termination of xtb

Topologies differ in total number of bonds
Writing topology from bond orders to xtbtopo.mol

molecular dipole:
                 x           y           z       tot (Debye)
 q only:        0.624      -1.343      -1.410
   full:        0.370      -1.288      -1.485       5.084
molecular quadrupole (traceless):
                xx          xy          yy          xz          yz          zz
 q only:        6.054      -1.460       4.532       3.147      -2.960     -10.586
  q+dip:        6.946      -2.491       4.444       3.839      -2.222     -11.390
   full:        6.812      -2.403       3.848       3.372      -2.458     -10.660


           -------------------------------------------------
          | TOTAL ENERGY              -27.852713488977 Eh   |
          | GRADIENT NORM               0.001017835791 Eh/α |
          | HOMO-LUMO GAP               2.541070012206 eV   |
           -------------------------------------------------

------------------------------------------------------------------------
 * finished run on 2026/08/20 at 02:54:28.180     
------------------------------------------------------------------------
 total:
 * wall-time:     0 d,  0 h,  0 min,  1.083 sec
 *  cpu-time:     0 d,  0 h,  0 min, 16.640 sec
 * ratio c/w:    15.359 speedup
 SCF:
 * wall-time:     0 d,  0 h,  0 min,  0.969 sec
 *  cpu-time:     0 d,  0 h,  0 min, 14.950 sec
 * ratio c/w:    15.424 speedup

