17
 xtb: 6.7.1 (edcfbbe)
C           -1.40062283066055       -1.57568552625937       -0.69424138102048
C           -1.11311517600339       -0.45437900688316        0.22769474920346
C           -1.50373462743729        0.85847401745055        0.16932055181075
C           -0.55627409804714        1.82859586024208        0.53992347917904
N            0.69556946569982        1.45134130942262        0.54903283352776
N            0.89274251881917        0.15094215412538        0.59118595396814
C            2.03882100752457       -0.44337998218623       -0.01333121990311
S           -0.10857465611647       -0.84183314612032        1.67309846710341
O           -0.52875108015034       -0.03442244728243        2.81181236146700
H           -2.17372780061269       -2.14642613226219       -0.26435872289728
H           -0.50556924460819       -2.22210640520841       -0.82114242486429
H           -1.67014436987924       -1.20159201745579       -1.67706793836220
H           -2.42585351800546        1.13261377609108       -0.30681331819559
H           -0.75625576579244        2.89325092538681        0.60482004021571
H            1.81706652620887       -1.50841108914433       -0.21247992706551
H            2.83732116136243       -0.35261091807961        0.67079405793172
H            2.25761431960326        0.04486656330888       -0.96257251734730
