 Entering Gaussian System
 *********************************************
 Gaussian 98:
 frequency output generated by the xtb code
 *********************************************
                         Standard orientation:
 --------------------------------------------------------------------
  Center     Atomic     Atomic              Coordinates (Angstroms)
  Number     Number      Type              X           Y           Z
 --------------------------------------------------------------------
    1          6             0       -1.345122   -1.552620   -0.697650
    2          6             0       -0.967437   -0.412759    0.183480
    3          6             0       -1.494784    0.877697    0.173443
    4          6             0       -0.563730    1.844504    0.520970
    5          7             0        0.692918    1.439830    0.562338
    6          7             0        0.780592    0.129297    0.497727
    7          6             0        1.985245   -0.454281   -0.031635
    8         16             0       -0.110847   -0.885886    1.749692
    9          8             0       -0.537735   -0.020202    2.829121
   10          1             0       -2.163062   -2.118079   -0.248957
   11          1             0       -0.503456   -2.231962   -0.824108
   12          1             0       -1.659039   -1.199080   -1.678083
   13          1             0       -2.450508    1.115168   -0.253860
   14          1             0       -0.756547    2.896945    0.611012
   15          1             0        1.816025   -1.514647   -0.212250
   16          1             0        2.805783   -0.339526    0.680188
   17          1             0        2.253137    0.039243   -0.966156
 --------------------------------------------------------------------
     1 basis functions        1 primitive gaussians
     1 alpha electrons        1 beta electrons

 Harmonic frequencies (cm**-1), IR intensities (km*mol⁻¹),
 Raman scattering activities (A**4/amu), Raman depolarization ratios,
 reduced masses (AMU), force constants (mDyne/A) and normal coordinates:
                      1                      2                      3
                        a                      a                      a 
 Frequencies --  -429.5186                71.3313                75.4868
 Red. masses --    13.8867                 1.3731                 1.1563
 Frc consts  --     0.0000                 0.0000                 0.0000
 IR Inten    --    22.5870                 0.1675                 0.1282
 Raman Activ --     0.0000                 0.0000                 0.0000
 Depolar     --     0.0000                 0.0000                 0.0000
 Atom AN      X      Y      Z        X      Y      Z        X      Y      Z
   1   6    -0.21  -0.09   0.01    -0.01  -0.02   0.03    -0.01  -0.00  -0.00
   2   6    -0.55  -0.16   0.17    -0.01  -0.00  -0.00    -0.02  -0.01   0.01
   3   6    -0.03  -0.07  -0.02    -0.04  -0.01   0.00    -0.02  -0.01   0.01
   4   6     0.03  -0.06   0.07    -0.04  -0.01  -0.01    -0.02  -0.01   0.02
   5   7     0.01   0.04  -0.05    -0.04   0.00  -0.04    -0.02   0.00   0.02
   6   7     0.42   0.08   0.35    -0.03   0.00  -0.05     0.01   0.00   0.01
   7   6     0.20   0.04   0.07     0.02  -0.01   0.06     0.01   0.04  -0.04
   8  16     0.01   0.17  -0.29     0.03   0.01  -0.01     0.01  -0.01  -0.02
   9   8     0.03  -0.05  -0.07     0.08   0.04  -0.00     0.05  -0.02   0.01
  10   1    -0.04  -0.11  -0.06    -0.08   0.06  -0.03    -0.38   0.34  -0.26
  11   1    -0.01   0.04   0.01    -0.04  -0.07   0.11    -0.17  -0.29   0.46
  12   1    -0.04  -0.01   0.00     0.10  -0.03  -0.03     0.51  -0.04  -0.18
  13   1     0.09   0.07  -0.20    -0.01  -0.01   0.01    -0.00  -0.00  -0.01
  14   1     0.00  -0.01  -0.02    -0.01  -0.00  -0.00    -0.01  -0.00   0.01
  15   1     0.00   0.02  -0.00    -0.16   0.11  -0.50     0.04  -0.01   0.09
  16   1     0.12  -0.05  -0.04    -0.14  -0.49   0.26     0.03   0.12  -0.07
  17   1     0.02   0.02   0.01     0.31   0.36   0.30    -0.07  -0.05  -0.07
                      4                      5                      6
                        a                      a                      a 
 Frequencies --   142.0435               180.6045               198.9535
 Red. masses --    13.2508                10.2273                13.4100
 Frc consts  --     0.0000                 0.0000                 0.0000
 IR Inten    --     2.3522                 0.4651                 5.5651
 Raman Activ --     0.0000                 0.0000                 0.0000
 Depolar     --     0.0000                 0.0000                 0.0000
 Atom AN      X      Y      Z        X      Y      Z        X      Y      Z
   1   6    -0.19   0.05   0.17     0.33  -0.02   0.01    -0.28  -0.07   0.18
   2   6     0.04   0.09   0.04    -0.01  -0.01   0.13     0.21  -0.06  -0.04
   3   6     0.02   0.10  -0.12     0.06   0.02  -0.03     0.12  -0.09   0.18
   4   6     0.03   0.18  -0.39     0.06   0.06  -0.10     0.07  -0.04   0.14
   5   7     0.01   0.14  -0.26     0.07   0.10  -0.05     0.12   0.05  -0.04
   6   7    -0.03   0.12  -0.01     0.11   0.10   0.23     0.14   0.07  -0.08
   7   6     0.06   0.08   0.22    -0.30  -0.14  -0.42     0.13   0.10  -0.13
   8  16     0.10  -0.11  -0.03    -0.00   0.09   0.12     0.19   0.03   0.02
   9   8    -0.05  -0.56   0.32    -0.30  -0.21   0.18    -0.65  -0.01  -0.26
  10   1    -0.06   0.06   0.10     0.10  -0.06  -0.06    -0.11   0.08   0.14
  11   1    -0.08  -0.02   0.04     0.14   0.04   0.05    -0.16  -0.11   0.03
  12   1    -0.08  -0.00   0.05     0.14  -0.01  -0.01    -0.12  -0.04   0.06
  13   1    -0.01  -0.00  -0.03     0.04   0.01  -0.05     0.00  -0.04   0.12
  14   1     0.02   0.06  -0.18     0.01   0.02  -0.07    -0.00  -0.02   0.07
  15   1     0.03   0.02   0.09    -0.22  -0.01  -0.20     0.03   0.03  -0.07
  16   1    -0.02   0.05   0.10     0.02  -0.19  -0.22     0.04   0.00  -0.04
  17   1     0.06  -0.00   0.06    -0.16   0.01  -0.11     0.03   0.06  -0.02
                      7                      8                      9
                        a                      a                      a 
 Frequencies --   210.3323               270.0861               307.5950
 Red. masses --    11.6939                12.9225                12.3705
 Frc consts  --     0.0000                 0.0000                 0.0000
 IR Inten    --     2.1613                 0.1418                 1.5801
 Raman Activ --     0.0000                 0.0000                 0.0000
 Depolar     --     0.0000                 0.0000                 0.0000
 Atom AN      X      Y      Z        X      Y      Z        X      Y      Z
   1   6     0.07   0.23  -0.33     0.23  -0.23   0.29    -0.24   0.04  -0.11
   2   6    -0.08  -0.10   0.15    -0.05   0.15  -0.10     0.23  -0.07  -0.13
   3   6    -0.13  -0.11   0.37    -0.06   0.14   0.10     0.08  -0.14  -0.28
   4   6    -0.06  -0.04  -0.01    -0.02   0.07   0.26    -0.18  -0.02   0.00
   5   7    -0.02   0.04  -0.39     0.01   0.11  -0.01    -0.11   0.18   0.31
   6   7    -0.01   0.04  -0.08    -0.06   0.11  -0.16     0.03   0.19   0.20
   7   6    -0.02  -0.25   0.22    -0.11  -0.27   0.19    -0.25  -0.26   0.11
   8  16     0.26   0.13   0.07     0.04   0.14  -0.41     0.33   0.10  -0.03
   9   8    -0.15   0.01  -0.01    -0.02  -0.14  -0.12     0.11   0.02  -0.04
  10   1    -0.01   0.01  -0.22     0.10  -0.07   0.14    -0.10   0.09   0.02
  11   1     0.03   0.08  -0.13     0.12  -0.02   0.20    -0.15  -0.08  -0.11
  12   1     0.08   0.19  -0.07     0.06  -0.22   0.03    -0.11   0.06  -0.00
  13   1    -0.07  -0.04   0.18    -0.03   0.07   0.08     0.03  -0.09  -0.13
  14   1    -0.03  -0.01  -0.02    -0.01   0.01   0.15    -0.10  -0.02   0.01
  15   1    -0.05  -0.08   0.13    -0.10  -0.08   0.15    -0.22  -0.06   0.09
  16   1    -0.03  -0.07   0.10    -0.06  -0.08   0.09    -0.03  -0.16  -0.01
  17   1     0.07  -0.15   0.04     0.05  -0.19   0.02    -0.05  -0.16  -0.00
                     10                     11                     12
                        a                      a                      a 
 Frequencies --   398.7044               446.8605               524.0616
 Red. masses --    17.2235                17.6383                12.8401
 Frc consts  --     0.0000                 0.0000                 0.0000
 IR Inten    --     6.6129                11.3723                 2.2823
 Raman Activ --     0.0000                 0.0000                 0.0000
 Depolar     --     0.0000                 0.0000                 0.0000
 Atom AN      X      Y      Z        X      Y      Z        X      Y      Z
   1   6     0.08   0.10   0.17     0.03   0.09   0.06     0.08   0.27   0.19
   2   6     0.01   0.04   0.22    -0.31   0.03   0.21     0.01   0.18   0.13
   3   6    -0.03   0.05   0.21    -0.04   0.15  -0.24    -0.19   0.02  -0.19
   4   6     0.02   0.16  -0.31     0.05   0.00  -0.05    -0.24  -0.02   0.07
   5   7    -0.03   0.06   0.09    -0.05  -0.22   0.31    -0.21   0.08   0.01
   6   7    -0.03   0.05   0.28    -0.27  -0.25  -0.20     0.31   0.10  -0.27
   7   6    -0.14   0.04   0.10    -0.04   0.02   0.00     0.34  -0.23  -0.15
   8  16     0.07  -0.46  -0.12     0.51   0.13   0.03    -0.08  -0.26   0.19
   9   8     0.04   0.18  -0.51    -0.23  -0.06  -0.09    -0.05   0.04  -0.04
  10   1     0.02   0.01   0.03     0.02  -0.04  -0.06     0.02   0.07   0.04
  11   1     0.03   0.04   0.06     0.06   0.08   0.04     0.03   0.08   0.05
  12   1     0.03   0.03   0.04     0.05   0.04   0.01     0.03   0.09   0.05
  13   1    -0.02  -0.03   0.06     0.04   0.07  -0.17     0.01  -0.02  -0.22
  14   1     0.02   0.06  -0.21     0.08   0.02  -0.04    -0.06  -0.00   0.05
  15   1    -0.06   0.01   0.03     0.08  -0.01  -0.02    -0.01  -0.06   0.02
  16   1    -0.01  -0.01  -0.00    -0.06   0.07   0.05     0.09  -0.11  -0.03
  17   1    -0.06   0.01   0.02    -0.00   0.04   0.02     0.17  -0.16  -0.07
                     13                     14                     15
                        a                      a                      a 
 Frequencies --   546.2679               587.5978               642.3490
 Red. masses --    17.8737                11.8589                12.8254
 Frc consts  --     0.0000                 0.0000                 0.0000
 IR Inten    --    20.2335                16.4592                 6.9919
 Raman Activ --     0.0000                 0.0000                 0.0000
 Depolar     --     0.0000                 0.0000                 0.0000
 Atom AN      X      Y      Z        X      Y      Z        X      Y      Z
   1   6     0.09   0.23   0.16    -0.08  -0.24  -0.18     0.03   0.03   0.10
   2   6     0.31   0.07   0.08    -0.16  -0.07  -0.14     0.04  -0.30   0.46
   3   6    -0.19  -0.14   0.23    -0.11   0.01   0.32     0.33  -0.23   0.01
   4   6    -0.08  -0.17  -0.22     0.07   0.13  -0.37     0.08   0.01   0.05
   5   7    -0.10  -0.22   0.20     0.04   0.13   0.52     0.13   0.18   0.10
   6   7     0.05  -0.23   0.12     0.11   0.14  -0.28    -0.14   0.16  -0.37
   7   6     0.12  -0.07  -0.05     0.16  -0.09  -0.10    -0.11   0.07   0.01
   8  16    -0.13   0.41  -0.37    -0.04   0.03   0.09    -0.26   0.04  -0.17
   9   8     0.01  -0.10   0.07    -0.01   0.01   0.10     0.05  -0.02  -0.01
  10   1     0.01   0.12   0.09    -0.01  -0.09  -0.05    -0.03  -0.03  -0.09
  11   1    -0.03   0.01  -0.01     0.01  -0.03  -0.01    -0.01  -0.00  -0.06
  12   1    -0.01   0.10   0.07    -0.01  -0.11  -0.07     0.05   0.18   0.08
  13   1    -0.03  -0.12  -0.02    -0.05   0.03   0.13     0.17  -0.10  -0.18
  14   1     0.01  -0.04  -0.13     0.00   0.04  -0.15    -0.07  -0.01  -0.03
  15   1     0.07  -0.02  -0.05    -0.03  -0.02   0.02    -0.03   0.01   0.04
  16   1     0.04  -0.01  -0.03     0.03  -0.06  -0.00    -0.09   0.04   0.07
  17   1    -0.02   0.03  -0.00     0.12  -0.10  -0.05     0.07  -0.04  -0.00
                     16                     17                     18
                        a                      a                      a 
 Frequencies --   696.7661               814.1861               856.1042
 Red. masses --     4.6208                10.9969                 3.7172
 Frc consts  --     0.0000                 0.0000                 0.0000
 IR Inten    --     8.7416                 6.6508                 3.2049
 Raman Activ --     0.0000                 0.0000                 0.0000
 Depolar     --     0.0000                 0.0000                 0.0000
 Atom AN      X      Y      Z        X      Y      Z        X      Y      Z
   1   6     0.01   0.06   0.07    -0.03  -0.19  -0.09     0.01   0.06   0.00
   2   6    -0.10  -0.08   0.20     0.11  -0.10   0.10    -0.02   0.04  -0.07
   3   6     0.12   0.05  -0.41     0.31   0.16   0.04    -0.04  -0.03  -0.09
   4   6    -0.06  -0.06  -0.06    -0.20   0.54   0.21    -0.01  -0.26   0.36
   5   7     0.03   0.01   0.10    -0.38  -0.11  -0.06     0.08   0.04   0.02
   6   7     0.07   0.02   0.04    -0.05  -0.18   0.08     0.02   0.07  -0.08
   7   6     0.09  -0.03  -0.03     0.21  -0.15  -0.08    -0.04   0.05   0.01
   8  16    -0.06   0.04  -0.09    -0.01   0.06  -0.05    -0.00  -0.01   0.01
   9   8     0.01  -0.01  -0.00     0.00  -0.01   0.00     0.00   0.00   0.01
  10   1    -0.01  -0.02  -0.05    -0.02  -0.06  -0.06     0.01   0.04   0.05
  11   1     0.01   0.03  -0.00    -0.02  -0.06  -0.07     0.00   0.01   0.03
  12   1     0.03   0.09   0.04     0.00   0.00  -0.01    -0.01  -0.04  -0.01
  13   1    -0.36  -0.09   0.73     0.04  -0.10   0.03    -0.04   0.09   0.11
  14   1    -0.05  -0.03   0.10     0.07   0.20  -0.22     0.09   0.03  -0.85
  15   1     0.02  -0.01  -0.01     0.08  -0.04  -0.04    -0.05   0.01   0.02
  16   1     0.02  -0.01  -0.01     0.06  -0.03  -0.03    -0.01  -0.01   0.01
  17   1     0.03  -0.01  -0.01     0.02  -0.01  -0.02     0.01  -0.02  -0.01
                     19                     20                     21
                        a                      a                      a 
 Frequencies --   962.0367               968.3066              1023.4982
 Red. masses --     7.6102                 7.9237                 4.7844
 Frc consts  --     0.0000                 0.0000                 0.0000
 IR Inten    --    27.6240                60.0016                11.4588
 Raman Activ --     0.0000                 0.0000                 0.0000
 Depolar     --     0.0000                 0.0000                 0.0000
 Atom AN      X      Y      Z        X      Y      Z        X      Y      Z
   1   6    -0.18   0.33   0.07     0.08  -0.18   0.03     0.32   0.19  -0.20
   2   6    -0.07  -0.02  -0.24     0.10   0.01   0.08    -0.27  -0.13   0.07
   3   6     0.36  -0.22   0.08    -0.11   0.13  -0.03     0.17  -0.08   0.03
   4   6    -0.00   0.04  -0.05     0.07  -0.02  -0.01     0.01   0.05  -0.05
   5   7    -0.20  -0.27   0.00    -0.19  -0.45  -0.01    -0.11  -0.06  -0.01
   6   7     0.11   0.05  -0.09     0.25   0.19  -0.12    -0.00  -0.02  -0.05
   7   6    -0.10   0.16   0.06    -0.15   0.30   0.07     0.02   0.05   0.03
   8  16     0.01   0.00   0.01    -0.00  -0.01  -0.03    -0.00  -0.00   0.01
   9   8    -0.01   0.02   0.06    -0.02   0.01   0.03    -0.00   0.01   0.02
  10   1     0.09  -0.13  -0.00    -0.06   0.01  -0.07     0.08   0.45   0.46
  11   1     0.21   0.33   0.32    -0.09  -0.15  -0.19    -0.17  -0.26  -0.01
  12   1     0.07  -0.20  -0.12     0.01   0.18   0.09    -0.24  -0.22  -0.04
  13   1     0.05  -0.18   0.07    -0.03   0.09   0.02     0.05   0.10   0.06
  14   1    -0.00   0.00   0.01     0.34   0.05   0.06    -0.08  -0.01   0.03
  15   1    -0.18   0.05   0.07    -0.34   0.10   0.16    -0.08   0.02   0.01
  16   1     0.02  -0.07  -0.01    -0.02  -0.10   0.02     0.05  -0.04  -0.03
  17   1     0.00  -0.06  -0.03     0.09  -0.13  -0.06    -0.01  -0.02  -0.02
                     22                     23                     24
                        a                      a                      a 
 Frequencies --  1063.4538              1091.4162              1121.9779
 Red. masses --     4.1385                 4.1638                 7.1498
 Frc consts  --     0.0000                 0.0000                 0.0000
 IR Inten    --    21.0637                14.2375                53.9361
 Raman Activ --     0.0000                 0.0000                 0.0000
 Depolar     --     0.0000                 0.0000                 0.0000
 Atom AN      X      Y      Z        X      Y      Z        X      Y      Z
   1   6    -0.09  -0.00  -0.27     0.03  -0.02   0.06     0.20   0.05   0.25
   2   6     0.07   0.04   0.28    -0.05   0.01  -0.06    -0.32  -0.03  -0.41
   3   6    -0.22   0.06  -0.08    -0.07  -0.01  -0.01     0.02  -0.15   0.03
   4   6     0.04   0.04   0.09     0.04   0.05   0.03     0.06   0.16   0.05
   5   7     0.16   0.03   0.00     0.07   0.07   0.01     0.03   0.02   0.03
   6   7     0.07   0.04  -0.01    -0.09  -0.05  -0.24     0.12   0.01   0.01
   7   6    -0.07   0.02  -0.02     0.14   0.01   0.39    -0.15  -0.08  -0.06
   8  16    -0.03   0.02   0.01    -0.00  -0.03  -0.01     0.05  -0.09  -0.04
   9   8     0.02  -0.02  -0.03    -0.00   0.02   0.02    -0.05   0.10   0.13
  10   1     0.07   0.02   0.12    -0.02  -0.00  -0.03    -0.06   0.11  -0.01
  11   1     0.02   0.01   0.12    -0.02  -0.02  -0.05    -0.07  -0.09  -0.15
  12   1    -0.08  -0.32  -0.16     0.02   0.09   0.04     0.03   0.30   0.17
  13   1    -0.18  -0.61  -0.12    -0.06  -0.20  -0.02    -0.08  -0.42  -0.03
  14   1     0.35   0.08   0.04     0.05   0.02   0.00     0.16   0.08  -0.03
  15   1     0.03  -0.00   0.01    -0.19   0.07  -0.14     0.18  -0.05  -0.02
  16   1    -0.07   0.04   0.05     0.44  -0.21  -0.35    -0.15   0.13   0.09
  17   1     0.04  -0.00   0.01    -0.47   0.13   0.01     0.04   0.06   0.05
                     25                     26                     27
                        a                      a                      a 
 Frequencies --  1141.8140              1175.8614              1183.0753
 Red. masses --     6.5936                16.9742                 9.8464
 Frc consts  --     0.0000                 0.0000                 0.0000
 IR Inten    --    43.5991               247.1540                69.0823
 Raman Activ --     0.0000                 0.0000                 0.0000
 Depolar     --     0.0000                 0.0000                 0.0000
 Atom AN      X      Y      Z        X      Y      Z        X      Y      Z
   1   6    -0.04   0.02  -0.06     0.03   0.07   0.08    -0.01   0.08   0.03
   2   6     0.11  -0.06   0.11    -0.04  -0.13  -0.14     0.01  -0.13  -0.04
   3   6     0.02  -0.03  -0.02    -0.01  -0.14  -0.02    -0.03  -0.19  -0.03
   4   6    -0.07  -0.04  -0.05     0.01   0.01  -0.01     0.07  -0.10  -0.01
   5   7    -0.18  -0.04   0.04    -0.09   0.12   0.01    -0.09   0.17  -0.01
   6   7     0.31   0.20  -0.19    -0.03   0.01  -0.00    -0.42   0.15   0.18
   7   6    -0.25  -0.25   0.16     0.01  -0.04  -0.00     0.28  -0.04  -0.12
   8  16     0.01  -0.07  -0.09    -0.15   0.29   0.38     0.07  -0.14  -0.19
   9   8    -0.04   0.10   0.12     0.21  -0.41  -0.51    -0.09   0.20   0.24
  10   1     0.02  -0.01   0.02     0.00   0.02   0.02     0.02   0.00   0.02
  11   1     0.02   0.03   0.06     0.01   0.02   0.02     0.03   0.05   0.05
  12   1    -0.02  -0.08  -0.04     0.01   0.06   0.03     0.01  -0.00  -0.00
  13   1     0.05   0.29   0.06     0.01   0.11   0.05     0.03   0.17   0.02
  14   1     0.27   0.04   0.04     0.39   0.07   0.06     0.55   0.06   0.10
  15   1     0.36  -0.08  -0.19     0.04  -0.01  -0.02    -0.05  -0.00   0.02
  16   1    -0.04   0.20  -0.02     0.00   0.01  -0.01     0.07  -0.08  -0.03
  17   1    -0.27   0.27   0.15    -0.01   0.02   0.01     0.10  -0.09  -0.06
                     28                     29                     30
                        a                      a                      a 
 Frequencies --  1282.9147              1336.7777              1390.9487
 Red. masses --    12.0531                11.7527                 2.9037
 Frc consts  --     0.0000                 0.0000                 0.0000
 IR Inten    --    70.4430                 9.5143                 3.9479
 Raman Activ --     0.0000                 0.0000                 0.0000
 Depolar     --     0.0000                 0.0000                 0.0000
 Atom AN      X      Y      Z        X      Y      Z        X      Y      Z
   1   6     0.02  -0.07  -0.02     0.01  -0.15  -0.05     0.08   0.22   0.15
   2   6    -0.09   0.20   0.02    -0.08   0.39   0.07    -0.02   0.02  -0.01
   3   6     0.18   0.13   0.07     0.34   0.12   0.11     0.04  -0.01   0.01
   4   6     0.10  -0.24  -0.03     0.08  -0.42  -0.09    -0.05  -0.02  -0.01
   5   7    -0.10  -0.35  -0.01    -0.38   0.38  -0.01     0.01   0.06   0.00
   6   7    -0.28   0.61   0.09     0.09  -0.27  -0.04     0.04  -0.07  -0.02
   7   6     0.20  -0.22  -0.06    -0.09   0.07   0.03     0.22  -0.12  -0.10
   8  16    -0.02   0.04   0.07     0.00  -0.01   0.00    -0.00  -0.01  -0.00
   9   8     0.04  -0.07  -0.10    -0.01   0.00   0.00    -0.00   0.01   0.01
  10   1    -0.03   0.01  -0.03    -0.05   0.01  -0.06     0.03  -0.23  -0.26
  11   1    -0.02  -0.04  -0.05    -0.02  -0.04  -0.09    -0.22  -0.22  -0.17
  12   1    -0.02   0.00   0.01    -0.02  -0.01   0.00    -0.06  -0.31  -0.08
  13   1     0.02  -0.22  -0.05     0.06  -0.15   0.03     0.01   0.01   0.00
  14   1    -0.12  -0.10  -0.04     0.16  -0.10   0.03     0.04   0.00   0.01
  15   1     0.09  -0.04  -0.08     0.03   0.00  -0.00    -0.41   0.03   0.14
  16   1     0.04   0.08  -0.04     0.00  -0.05  -0.00    -0.21   0.22   0.22
  17   1    -0.04   0.09   0.04     0.03  -0.06  -0.02    -0.27   0.26   0.05
                     31                     32                     33
                        a                      a                      a 
 Frequencies --  1397.6266              1439.4683              1446.5758
 Red. masses --     2.9695                10.9579                 1.6826
 Frc consts  --     0.0000                 0.0000                 0.0000
 IR Inten    --     9.7060                90.5660                 2.9758
 Raman Activ --     0.0000                 0.0000                 0.0000
 Depolar     --     0.0000                 0.0000                 0.0000
 Atom AN      X      Y      Z        X      Y      Z        X      Y      Z
   1   6     0.10   0.26   0.18     0.00   0.10   0.03    -0.01   0.02  -0.04
   2   6     0.01  -0.04  -0.02    -0.01  -0.40  -0.13     0.00  -0.06  -0.03
   3   6    -0.02  -0.00  -0.00     0.17   0.57   0.13     0.00   0.08   0.01
   4   6     0.02   0.02   0.01    -0.47  -0.26  -0.10    -0.00  -0.03  -0.00
   5   7     0.01  -0.04   0.00     0.19   0.02   0.00    -0.01   0.02  -0.00
   6   7    -0.05   0.05   0.02     0.00  -0.01  -0.00     0.02  -0.02   0.03
   7   6    -0.19   0.10   0.10    -0.03   0.02  -0.01     0.08  -0.03   0.19
   8  16    -0.00   0.01   0.00     0.00  -0.01  -0.00     0.00   0.00  -0.00
   9   8     0.00  -0.01  -0.00     0.00   0.02   0.02    -0.00   0.00   0.00
  10   1     0.02  -0.25  -0.31     0.10  -0.06   0.09     0.08  -0.07   0.06
  11   1    -0.24  -0.25  -0.18    -0.04  -0.05   0.09    -0.03  -0.06   0.11
  12   1    -0.10  -0.35  -0.09     0.06   0.09   0.02     0.01   0.10   0.03
  13   1    -0.01   0.01   0.00     0.04  -0.08  -0.08    -0.00  -0.02  -0.01
  14   1    -0.02   0.00  -0.00     0.13  -0.03   0.02    -0.00  -0.01  -0.00
  15   1     0.34  -0.02  -0.17     0.00  -0.01   0.09    -0.22   0.15  -0.64
  16   1     0.19  -0.14  -0.21     0.05  -0.04  -0.06    -0.12   0.42   0.09
  17   1     0.26  -0.25  -0.04     0.06   0.05   0.04    -0.02  -0.42  -0.21
                     34                     35                     36
                        a                      a                      a 
 Frequencies --  1461.5945              1465.8543              1470.6007
 Red. masses --     1.6999                 4.4733                 1.7383
 Frc consts  --     0.0000                 0.0000                 0.0000
 IR Inten    --     8.3906                21.9095                 3.3846
 Raman Activ --     0.0000                 0.0000                 0.0000
 Depolar     --     0.0000                 0.0000                 0.0000
 Atom AN      X      Y      Z        X      Y      Z        X      Y      Z
   1   6     0.07   0.01  -0.01     0.13  -0.13   0.07     0.14   0.03  -0.16
   2   6     0.01  -0.05  -0.02    -0.04   0.13   0.03     0.04   0.01  -0.01
   3   6     0.01   0.06   0.01     0.11  -0.08   0.03    -0.03  -0.01  -0.01
   4   6    -0.05  -0.02  -0.01    -0.38   0.01  -0.05     0.09   0.00   0.01
   5   7     0.03  -0.03   0.00     0.26  -0.07   0.01    -0.06   0.03  -0.00
   6   7     0.01   0.06   0.00    -0.01  -0.01   0.00    -0.00  -0.02   0.00
   7   6     0.12   0.16  -0.02    -0.01  -0.01   0.04    -0.03  -0.05  -0.02
   8  16    -0.00   0.00   0.00     0.00  -0.00  -0.00     0.00  -0.00  -0.00
   9   8     0.00  -0.00  -0.00    -0.00   0.00   0.00    -0.00   0.00   0.00
  10   1    -0.07   0.01  -0.13    -0.38   0.33  -0.29     0.00  -0.17  -0.24
  11   1     0.02  -0.00   0.13     0.22   0.27  -0.10    -0.05  -0.18   0.58
  12   1    -0.21   0.00   0.07    -0.33  -0.21   0.05    -0.54   0.22   0.24
  13   1     0.00  -0.01  -0.01     0.05   0.04   0.01    -0.01  -0.01  -0.00
  14   1     0.01  -0.00  -0.00     0.12   0.04   0.02    -0.03  -0.01  -0.00
  15   1     0.29  -0.03  -0.03    -0.10   0.04  -0.10    -0.07  -0.01   0.08
  16   1    -0.26  -0.44   0.38     0.04   0.13  -0.06     0.07   0.08  -0.10
  17   1    -0.49  -0.22  -0.27     0.09  -0.04   0.01     0.13   0.11   0.10
                     37                     38                     39
                        a                      a                      a 
 Frequencies --  1488.3766              2976.6438              2987.7496
 Red. masses --     9.0755                 1.7957                 1.8253
 Frc consts  --     0.0000                 0.0000                 0.0000
 IR Inten    --    18.0957                10.7929                15.2901
 Raman Activ --     0.0000                 0.0000                 0.0000
 Depolar     --     0.0000                 0.0000                 0.0000
 Atom AN      X      Y      Z        X      Y      Z        X      Y      Z
   1   6    -0.06  -0.05  -0.13    -0.00  -0.00   0.00     0.22   0.09  -0.13
   2   6    -0.11   0.47   0.07     0.00   0.00   0.00     0.01   0.01   0.00
   3   6     0.16  -0.32   0.02     0.00   0.00   0.00    -0.00  -0.00  -0.00
   4   6    -0.44   0.06  -0.05    -0.00  -0.00  -0.00     0.00  -0.00  -0.00
   5   7     0.32  -0.12   0.01     0.00  -0.00  -0.00    -0.00   0.00   0.00
   6   7    -0.03   0.01   0.00    -0.01   0.00   0.00    -0.00  -0.00  -0.00
   7   6    -0.00   0.04   0.00    -0.18  -0.03  -0.20    -0.00  -0.00   0.00
   8  16     0.00   0.00   0.00    -0.00  -0.00  -0.00     0.00   0.00   0.00
   9   8    -0.00  -0.01  -0.01     0.00   0.00   0.00    -0.00  -0.00   0.00
  10   1     0.21  -0.22   0.13     0.01   0.00  -0.00    -0.70  -0.48   0.39
  11   1    -0.16  -0.23   0.08    -0.00   0.00   0.00    -0.14   0.15   0.00
  12   1     0.12   0.17   0.01    -0.00   0.00  -0.01     0.05  -0.01   0.03
  13   1     0.07   0.07   0.04    -0.00   0.00   0.00     0.00  -0.00   0.00
  14   1     0.14   0.06   0.02     0.00   0.00   0.00    -0.00   0.00   0.00
  15   1     0.05  -0.00   0.01    -0.01   0.06  -0.02    -0.00  -0.00  -0.00
  16   1     0.01  -0.06   0.00     0.71   0.11   0.63     0.01   0.00   0.01
  17   1    -0.01  -0.03  -0.02    -0.05  -0.07   0.08     0.00   0.01  -0.02
                     40                     41                     42
                        a                      a                      a 
 Frequencies --  3010.3299              3017.3940              3022.0532
 Red. masses --     1.6021                 1.7293                 1.7318
 Frc consts  --     0.0000                 0.0000                 0.0000
 IR Inten    --     7.5268                16.6202                 8.3446
 Raman Activ --     0.0000                 0.0000                 0.0000
 Depolar     --     0.0000                 0.0000                 0.0000
 Atom AN      X      Y      Z        X      Y      Z        X      Y      Z
   1   6     0.01  -0.00   0.00    -0.16   0.19  -0.04    -0.01   0.01  -0.01
   2   6     0.00  -0.00   0.00    -0.00   0.01   0.00     0.00  -0.00  -0.00
   3   6    -0.00  -0.00   0.00     0.00  -0.00   0.00     0.00   0.00   0.00
   4   6     0.00   0.00  -0.00    -0.00  -0.00  -0.00    -0.00  -0.00  -0.00
   5   7    -0.00   0.00   0.00     0.00   0.00   0.00     0.00   0.00  -0.00
   6   7     0.01  -0.00  -0.01    -0.00  -0.00  -0.00     0.00  -0.01  -0.00
   7   6     0.08   0.10  -0.19     0.00   0.01  -0.01    -0.04  -0.25  -0.01
   8  16    -0.00  -0.00   0.00     0.00   0.00   0.00     0.00  -0.00  -0.00
   9   8     0.00   0.00   0.00     0.00  -0.00  -0.00    -0.00   0.00   0.00
  10   1    -0.01  -0.01   0.01    -0.18  -0.08   0.08    -0.00  -0.00   0.00
  11   1    -0.02   0.02   0.00     0.73  -0.56  -0.11     0.01  -0.01  -0.00
  12   1    -0.00   0.01  -0.02     0.03  -0.04   0.17     0.01  -0.01   0.03
  13   1    -0.00   0.00   0.00    -0.00   0.00  -0.00    -0.00   0.00   0.00
  14   1     0.00  -0.00  -0.00     0.00   0.00  -0.00     0.00  -0.00   0.00
  15   1     0.02   0.09  -0.01    -0.00  -0.02  -0.00     0.16   0.93   0.16
  16   1    -0.09   0.00  -0.11     0.00   0.00   0.00    -0.05  -0.04  -0.03
  17   1    -0.23  -0.44   0.82    -0.01  -0.01   0.02     0.01   0.01  -0.07
                     43                     44                     45
                        a                      a                      a 
 Frequencies --  3027.0930              3135.6938              3152.5676
 Red. masses --     1.5787                 1.8197                 1.8820
 Frc consts  --     0.0000                 0.0000                 0.0000
 IR Inten    --    15.1748                 9.6203                22.6401
 Raman Activ --     0.0000                 0.0000                 0.0000
 Depolar     --     0.0000                 0.0000                 0.0000
 Atom AN      X      Y      Z        X      Y      Z        X      Y      Z
   1   6     0.05  -0.05   0.22     0.00  -0.00   0.00    -0.00   0.00  -0.00
   2   6     0.00   0.00   0.01     0.01   0.01   0.00    -0.00  -0.00  -0.00
   3   6    -0.00  -0.00  -0.00     0.24  -0.06   0.10    -0.08   0.02  -0.03
   4   6     0.00  -0.00   0.00    -0.01   0.07   0.01    -0.05   0.26   0.02
   5   7    -0.00   0.00  -0.00    -0.00   0.00   0.00     0.01   0.01   0.00
   6   7     0.00  -0.00   0.00    -0.00  -0.00  -0.00     0.00  -0.00   0.00
   7   6    -0.00  -0.01   0.00     0.00  -0.00   0.00    -0.00   0.00   0.00
   8  16    -0.00   0.00  -0.00     0.00  -0.00  -0.00    -0.00  -0.00   0.00
   9   8     0.00   0.00   0.00    -0.00   0.00   0.00     0.00  -0.00  -0.00
  10   1    -0.06  -0.06   0.07    -0.00  -0.00   0.00     0.00   0.00  -0.00
  11   1     0.15  -0.12   0.01    -0.00   0.00   0.00     0.00  -0.00   0.00
  12   1    -0.27   0.32  -0.85    -0.00   0.00  -0.01    -0.00  -0.00   0.00
  13   1     0.01  -0.00   0.00    -0.82   0.21  -0.36     0.24  -0.06   0.10
  14   1    -0.00   0.00   0.00     0.05  -0.27  -0.02     0.17  -0.90  -0.08
  15   1     0.00   0.03   0.01    -0.00   0.00   0.00    -0.00  -0.00  -0.00
  16   1    -0.01  -0.00  -0.00    -0.00   0.00  -0.00     0.00   0.00   0.00
  17   1     0.00   0.01  -0.02     0.00   0.00  -0.00     0.00   0.00  -0.00
