15
 energy: -20.624907025081 gnorm: 0.000918012018 xtb: 6.7.1 (edcfbbe)
C            1.93073059033573       -1.09920512900353        0.00015964828510
C            0.51460271089717       -0.65410976135272        0.00568377413971
C           -0.66555932985282       -1.36923789188665        0.00520314788274
C           -1.67315759096643       -0.39822363729328        0.01005940380981
N           -1.15751090936966        0.81554193944147        0.01301048889905
N            0.16395091494549        0.65279597283149        0.00952500668180
C            1.03738783824307        1.78856346842314        0.01708632559148
H            1.97406694684085       -2.18459296224916        0.01116568473962
H            2.46063472788361       -0.71901704169202        0.87407722310045
H            2.44721837819513       -0.73829794705137       -0.89003531331738
H           -0.78100778766822       -2.43376381653199        0.00213302762582
H           -2.73616522115059       -0.53336485672378        0.01114621683078
H            0.41481852323199        2.68000647564706       -0.00905181443266
H            1.69453175238789        1.77778104492057       -0.85497307393441
H            1.65046845604680        1.80107414252077        0.92120025409808
