17
Properties=species:S:1:pos:R:3 energy:=T -27.889159613580=T gnorm:=T 0.000542891349=T xtb:=T 6.7.1=T (edcfbbe)=T pbc="F F F"
O        1.35699302       3.18068366       2.07211022
S        0.86136334       1.86285589       2.48490334
N        0.64409784      -0.41386835      -0.01210101
C        1.66858916      -0.07970611       0.93150923
N        0.88220104      -1.29059096      -0.98548957
C       -0.23919927      -1.38356265      -1.67291948
C       -1.22665645      -0.55013825      -1.13427647
C       -0.62103693       0.06488404      -0.05773821
C       -1.13162776       1.05760954       0.92124202
H        1.36431320      -0.34677285       1.94625190
H        2.55909916      -0.64321028       0.66164911
H        1.89189009       0.98911253       0.89988338
H       -0.30229058      -2.03624123      -2.52068513
H       -2.23171894      -0.41654732      -1.47865189
H       -2.16712240       1.29661890       0.69609440
H       -0.54486718       1.97606011       0.88334573
H       -1.07653484       0.66408612       1.93679309
