      -----------------------------------------------------------      
     |                   =====================                   |     
     |                           x T B                           |     
     |                   =====================                   |     
     |                         S. Grimme                         |     
     |          Mulliken Center for Theoretical Chemistry        |     
     |                    University of Bonn                     |     
      -----------------------------------------------------------      

   * xtb version 6.7.1 (edcfbbe) compiled by 'conda@3ef47c1a292c' on 2024-11-25

   xtb is free software: you can redistribute it and/or modify it under
   the terms of the GNU Lesser General Public License as published by
   the Free Software Foundation, either version 3 of the License, or
   (at your option) any later version.
   
   xtb is distributed in the hope that it will be useful,
   but WITHOUT ANY WARRANTY; without even the implied warranty of
   MERCHANTABILITY or FITNESS FOR A PARTICULAR PURPOSE.  See the
   GNU Lesser General Public License for more details.
   
   Cite this work as:
   * C. Bannwarth, E. Caldeweyher, S. Ehlert, A. Hansen, P. Pracht,
     J. Seibert, S. Spicher, S. Grimme, WIREs Comput. Mol. Sci., 2020, 11,
     e01493. DOI: 10.1002/wcms.1493
   
   for GFN2-xTB:
   * C. Bannwarth, S. Ehlert and S. Grimme., J. Chem. Theory Comput., 2019,
     15, 1652-1671. DOI: 10.1021/acs.jctc.8b01176
   for GFN1-xTB:
   * S. Grimme, C. Bannwarth, P. Shushkov, J. Chem. Theory Comput., 2017,
     13, 1989-2009. DOI: 10.1021/acs.jctc.7b00118
   for GFN0-xTB:
   * P. Pracht, E. Caldeweyher, S. Ehlert, S. Grimme, ChemRxiv, 2019, preprint.
     DOI: 10.26434/chemrxiv.8326202.v1
   for GFN-FF:
   * S. Spicher and S. Grimme, Angew. Chem. Int. Ed., 2020, 59, 15665-15673.
     DOI: 10.1002/anie.202004239
   
   for ALPB and GBSA implicit solvation:
   * S. Ehlert, M. Stahn, S. Spicher, S. Grimme, J. Chem. Theory Comput.,
     2021, 17, 4250-4261. DOI: 10.1021/acs.jctc.1c00471
   
   for ddCOSMO and CPCM-X implicit solvation:
   * M. Stahn, S. Ehlert, S. Grimme, J. Phys. Chem. A,
     2023, XX, XXXX-XXXX. DOI: 10.1021/acs.jpca.3c04382
   
   for DFT-D4:
   * E. Caldeweyher, C. Bannwarth and S. Grimme, J. Chem. Phys., 2017,
     147, 034112. DOI: 10.1063/1.4993215
   * E. Caldeweyher, S. Ehlert, A. Hansen, H. Neugebauer, S. Spicher,
     C. Bannwarth and S. Grimme, J. Chem. Phys., 2019, 150, 154122.
     DOI: 10.1063/1.5090222
   * E. Caldeweyher, J.-M. Mewes, S. Ehlert and S. Grimme, Phys. Chem. Chem. Phys.
     2020, 22, 8499-8512. DOI: 10.1039/D0CP00502A
   
   for sTDA-xTB:
   * S. Grimme and C. Bannwarth, J. Chem. Phys., 2016, 145, 054103.
     DOI: 10.1063/1.4959605
   
   in the mass-spec context:
   * V. Asgeirsson, C. Bauer and S. Grimme, Chem. Sci., 2017, 8, 4879.
     DOI: 10.1039/c7sc00601b
   * J. Koopman and S. Grimme, ACS Omega 2019, 4, 12, 15120-15133.
     DOI: 10.1021/acsomega.9b02011
   
   for metadynamics refer to:
   * S. Grimme, J. Chem. Theory Comput., 2019, 155, 2847-2862
     DOI: 10.1021/acs.jctc.9b00143
   
   for SPH calculations refer to:
   * S. Spicher and S. Grimme, J. Chem. Theory Comput., 2021, 17, 1701-1714
     DOI: 10.1021/acs.jctc.0c01306
   
   for ONIOM refer to:
   * C. Plett, A. Katbashev, S. Ehlert, S. Grimme, M. Bursch,
     Phys. Chem. Chem. Phys., 2023, 25, 17860-17868. DOI: 10.1039/D3CP02178E
   
   for DIPRO refer to:
   * J. Kohn, N. Gildemeister, S. Grimme, D. Fazzi, A. Hansen,
     J. Chem. Phys., 2023, just accepted.
   
   for PTB refer to:
   * S. Grimme, M. Mueller, A. Hansen, J. Chem. Phys., 2023, 158, 124111.
     DOI: 10.1063/5.0137838
   
   with help from (in alphabetical order)
   P. Atkinson, C. Bannwarth, F. Bohle, G. Brandenburg, E. Caldeweyher
   M. Checinski, S. Dohm, S. Ehlert, S. Ehrlich, I. Gerasimov, C. Hölzer
   A. Katbashev, J. Kohn, J. Koopman, C. Lavigne, S. Lehtola, F. März, M. Müller,
   F. Musil, H. Neugebauer, J. Pisarek, C. Plett, P. Pracht, F. Pultar,
   J. Seibert, P. Shushkov, S. Spicher, M. Stahn, M. Steiner, T. Strunk,
   J. Stückrath, T. Rose, and J. Unsleber
   
 * started run on 2026/08/20 at 02:22:02.738     
   ID    Z sym.   atoms
    1    8 O      1
    2   16 S      2
    3    7 N      3, 5
    4    6 C      4, 6-9
    5    1 H      10-17

           -------------------------------------------------
          |                Calculation Setup                |
           -------------------------------------------------

          program call               : xtb ../../../A_start_raw.xyz --opt tight --gfn 2
          coordinate file            : ../../../A_start_raw.xyz
          omp threads                :                    16


           -------------------------------------------------
          |                 G F N 2 - x T B                 |
           -------------------------------------------------

        Reference                      10.1021/acs.jctc.8b01176
      * Hamiltonian:
        H0-scaling (s, p, d)           1.850000    2.230000    2.230000
        zeta-weighting                 0.500000
      * Dispersion:
        s8                             2.700000
        a1                             0.520000
        a2                             5.000000
        s9                             5.000000
      * Repulsion:
        kExp                           1.500000    1.000000
        rExp                           1.000000
      * Coulomb:
        alpha                          2.000000
        third order                    shell-resolved
        anisotropic                    true
        a3                             3.000000
        a5                             4.000000
        cn-shift                       1.200000
        cn-exp                         4.000000
        max-rad                        5.000000

q/qsh data taken from xtbrestart
CAMM data taken from xtbrestart

          ...................................................
          :                      SETUP                      :
          :.................................................:
          :  # basis functions                  50          :
          :  # atomic orbitals                  49          :
          :  # shells                           27          :
          :  # electrons                        50          :
          :  max. iterations                   250          :
          :  Hamiltonian                  GFN2-xTB          :
          :  restarted?                       true          :
          :  GBSA solvation                  false          :
          :  PC potential                    false          :
          :  electronic temp.          300.0000000     K    :
          :  accuracy                    1.0000000          :
          :  -> integral cutoff          0.2500000E+02      :
          :  -> integral neglect         0.1000000E-07      :
          :  -> SCF convergence          0.1000000E-05 Eh   :
          :  -> wf. convergence          0.1000000E-03 e    :
          :  Broyden damping             0.4000000          :
          :  net charge                          0          :
          :  unpaired electrons                  0          :
          ...................................................

 iter      E             dE          RMSdq      gap      omega  full diag
   1    -28.1433085 -0.281433E+02  0.167E+00    2.71       0.0  T
   2    -28.1460439 -0.273544E-02  0.954E-01    2.53       1.0  T
   3    -28.1461319 -0.879731E-04  0.634E-01    2.66       1.0  T
   4    -28.1491701 -0.303819E-02  0.213E-01    2.57       1.0  T
   5    -28.1493944 -0.224265E-03  0.933E-02    2.58       1.0  T
   6    -28.1494021 -0.770618E-05  0.546E-02    2.58       1.0  T
   7    -28.1494374 -0.353622E-04  0.110E-02    2.58       2.2  T
   8    -28.1494377 -0.228580E-06  0.638E-03    2.58       3.8  T
   9    -28.1494377 -0.711073E-07  0.187E-03    2.58      13.0  T
  10    -28.1494377 -0.388193E-08  0.669E-04    2.58      36.3  T
  11    -28.1494377 -0.892307E-09  0.307E-04    2.58      78.9  T

   *** convergence criteria satisfied after 11 iterations ***

         #    Occupation            Energy/Eh            Energy/eV
      -------------------------------------------------------------
         1        2.0000           -0.7574004             -20.6099
       ...           ...                  ...                  ...
        19        2.0000           -0.4738240             -12.8934
        20        2.0000           -0.4664382             -12.6924
        21        2.0000           -0.4377583             -11.9120
        22        2.0000           -0.4208203             -11.4511
        23        2.0000           -0.3913302             -10.6486
        24        2.0000           -0.3811259             -10.3710
        25        2.0000           -0.3727684             -10.1435 (HOMO)
        26                         -0.2780060              -7.5649 (LUMO)
        27                         -0.2186739              -5.9504
        28                         -0.1968845              -5.3575
        29                         -0.1524046              -4.1471
        30                         -0.0969121              -2.6371
       ...                                ...                  ...
        49                          0.7694047              20.9366
      -------------------------------------------------------------
                  HL-Gap            0.0947624 Eh            2.5786 eV
             Fermi-level           -0.3253872 Eh           -8.8542 eV

 SCC (total)                   0 d,  0 h,  0 min,  5.383 sec
 SCC setup                      ...        0 min,  0.042 sec (  0.771%)
 Dispersion                     ...        0 min,  0.133 sec (  2.471%)
 classical contributions        ...        0 min,  0.024 sec (  0.449%)
 integral evaluation            ...        0 min,  0.187 sec (  3.481%)
 iterations                     ...        0 min,  4.399 sec ( 81.719%)
 molecular gradient             ...        0 min,  0.598 sec ( 11.106%)
 printout                       ...        0 min,  0.000 sec (  0.003%)

         :::::::::::::::::::::::::::::::::::::::::::::::::::::
         ::                     SUMMARY                     ::
         :::::::::::::::::::::::::::::::::::::::::::::::::::::
         :: total energy             -27.867209600038 Eh    ::
         :: gradient norm              0.123788249041 Eh/a0 ::
         :: HOMO-LUMO gap              2.578616691964 eV    ::
         ::.................................................::
         :: SCC energy               -28.149393691324 Eh    ::
         :: -> isotropic ES            0.051873929490 Eh    ::
         :: -> anisotropic ES          0.000616802335 Eh    ::
         :: -> anisotropic XC          0.018755575786 Eh    ::
         :: -> dispersion             -0.014954223375 Eh    ::
         :: repulsion energy           0.282184091286 Eh    ::
         :: add. restraining           0.000000000000 Eh    ::
         :: total charge               0.000000000000 e     ::
         :::::::::::::::::::::::::::::::::::::::::::::::::::::

      ----------------------------------------------------------- 
     |                   =====================                   |
     |                        A N C O P T                        |
     |                   =====================                   |
     |               Approximate Normal Coordinate               |
     |                Rational Function Optimizer                |
      ----------------------------------------------------------- 
      ----------------------------------------------------------- 
     |                   =====================                   |
     |                        A N C O P T                        |
     |                   =====================                   |
     |               Approximate Normal Coordinate               |
     |                Rational Function Optimizer                |
      ----------------------------------------------------------- 

          ...................................................
          :                      SETUP                      :
          :.................................................:
          :   optimization level             tight          :
          :   max. optcycles                   200          :
          :   ANC micro-cycles                  20          :
          :   degrees of freedom                45          :
          :.................................................:
          :   RF solver                   davidson          :
          :   write xtbopt.log                true          :
          :   linear?                        false          :
          :   energy convergence         0.1000000E-05 Eh   :
          :   grad. convergence          0.8000000E-03 Eh/α :
          :   maxmium RF displ.          1.0000000          :
          :   Hlow (freq-cutoff)         0.1000000E-01      :
          :   Hmax (freq-cutoff)         5.0000000          :
          :   S6 in model hess.         20.0000000          :
          ...................................................

generating ANC from exact Hessian ...
Using Lindh-Hessian (1995)
 Shifting diagonal of input Hessian by    6.0944884113022391E-003
 Lowest  eigenvalues of input Hessian
    0.000000    0.000000    0.000000    0.000000    0.000000    0.000000
    0.010000    0.012630    0.014564    0.016105    0.017721    0.021885
    0.027914    0.031680    0.038381    0.050167    0.055638    0.066339
 Highest eigenvalues
    1.355861    1.436875    1.580399    1.875815    2.001194    2.113240


........................................................................
.............................. CYCLE    1 ..............................
........................................................................

 iter      E             dE          RMSdq      gap      omega  full diag
   1    -28.1494377 -0.281494E+02  0.922E-05    2.58       0.0  T
   2    -28.1494377 -0.588685E-11  0.513E-05    2.58     473.1  T
   3    -28.1494377  0.521538E-11  0.399E-05    2.58     607.7  T
     SCC iter.                  ...        0 min,  0.847 sec
     gradient                   ...        0 min,  0.599 sec
 * total energy  :   -27.8672096 Eh     change       -0.9214318E-10 Eh
   gradient norm :     0.1237904 Eh/α   predicted     0.0000000E+00 (-100.00%)
   displ. norm   :     0.3351188 α      lambda       -0.2078102E-01
   maximum displ.:     0.1681087 α      in ANC's #9, #26, #11, ...

........................................................................
.............................. CYCLE    2 ..............................
........................................................................

 iter      E             dE          RMSdq      gap      omega  full diag
   1    -28.1899327 -0.281899E+02  0.438E-01    2.65       0.0  T
   2    -28.1903072 -0.374503E-03  0.305E-01    2.72       1.0  T
   3    -28.1907843 -0.477103E-03  0.160E-01    2.69       1.0  T
   4    -28.1908746 -0.902968E-04  0.654E-02    2.70       1.0  T
   5    -28.1908989 -0.243415E-04  0.246E-02    2.70       1.0  T
   6    -28.1909033 -0.440418E-05  0.130E-02    2.70       1.9  T
   7    -28.1909045 -0.118014E-05  0.300E-03    2.70       8.1  T
   8    -28.1909045 -0.165016E-07  0.148E-03    2.70      16.4  T
   9    -28.1909045 -0.291352E-08  0.410E-04    2.70      59.1  T
  10    -28.1909045 -0.201933E-09  0.161E-04    2.70     150.3  T
     SCC iter.                  ...        0 min,  3.270 sec
     gradient                   ...        0 min,  0.621 sec
 * total energy  :   -27.8821433 Eh     change       -0.1493369E-01 Eh
   gradient norm :     0.0695261 Eh/α   predicted    -0.1155741E-01 ( -22.61%)
   displ. norm   :     0.3058688 α      lambda       -0.8399025E-02
   maximum displ.:     0.1569434 α      in ANC's #9, #6, #8, ...

........................................................................
.............................. CYCLE    3 ..............................
........................................................................

 iter      E             dE          RMSdq      gap      omega  full diag
   1    -28.2116073 -0.282116E+02  0.418E-01    2.71       0.0  T
   2    -28.2120517 -0.444398E-03  0.324E-01    2.79       1.0  T
   3    -28.2128865 -0.834814E-03  0.139E-01    2.76       1.0  T
   4    -28.2129010 -0.144231E-04  0.734E-02    2.77       1.0  T
   5    -28.2129316 -0.306483E-04  0.258E-02    2.77       1.0  T
   6    -28.2129387 -0.709020E-05  0.110E-02    2.77       2.2  T
   7    -28.2129393 -0.577239E-06  0.235E-03    2.77      10.3  T
   8    -28.2129393 -0.110033E-07  0.109E-03    2.77      22.2  T
   9    -28.2129393 -0.192010E-08  0.348E-04    2.77      69.7  T
  10    -28.2129393 -0.185217E-09  0.144E-04    2.77     168.0  T
     SCC iter.                  ...        0 min,  3.901 sec
     gradient                   ...        0 min,  0.543 sec
 * total energy  :   -27.8866768 Eh     change       -0.4533517E-02 Eh
   gradient norm :     0.0193961 Eh/α   predicted    -0.4592406E-02 (   1.30%)
   displ. norm   :     0.1555165 α      lambda       -0.7972734E-03
   maximum displ.:     0.0864833 α      in ANC's #6, #5, #4, ...

........................................................................
.............................. CYCLE    4 ..............................
........................................................................

 iter      E             dE          RMSdq      gap      omega  full diag
   1    -28.2108440 -0.282108E+02  0.128E-01    2.76       0.0  T
   2    -28.2108698 -0.258242E-04  0.685E-02    2.76       1.0  T
   3    -28.2108703 -0.484819E-06  0.317E-02    2.76       1.0  T
   4    -28.2108690  0.125752E-05  0.176E-02    2.76       1.4  T
   5    -28.2108728 -0.381230E-05  0.530E-03    2.76       4.6  T
   6    -28.2108729 -0.331818E-07  0.167E-03    2.76      14.5  T
   7    -28.2108729 -0.283517E-07  0.577E-04    2.76      42.0  T
   8    -28.2108729 -0.170566E-08  0.287E-04    2.76      84.4  T
     SCC iter.                  ...        0 min,  2.196 sec
     gradient                   ...        0 min,  0.584 sec
 * total energy  :   -27.8872289 Eh     change       -0.5520861E-03 Eh
   gradient norm :     0.0072219 Eh/α   predicted    -0.4082768E-03 ( -26.05%)
   displ. norm   :     0.1367800 α      lambda       -0.2782671E-03
   maximum displ.:     0.0841976 α      in ANC's #6, #4, #5, ...

........................................................................
.............................. CYCLE    5 ..............................
........................................................................

 iter      E             dE          RMSdq      gap      omega  full diag
   1    -28.2095243 -0.282095E+02  0.992E-02    2.77       0.0  T
   2    -28.2095342 -0.989871E-05  0.510E-02    2.76       1.0  T
   3    -28.2095338  0.437488E-06  0.205E-02    2.77       1.2  T
   4    -28.2095346 -0.824850E-06  0.109E-02    2.76       2.2  T
   5    -28.2095357 -0.107619E-05  0.451E-03    2.77       5.4  T
   6    -28.2095357 -0.445454E-07  0.172E-03    2.77      14.1  T
   7    -28.2095358 -0.456186E-07  0.460E-04    2.77      52.7  T
   8    -28.2095358 -0.410068E-09  0.208E-04    2.77     116.9  T
     SCC iter.                  ...        0 min,  2.140 sec
     gradient                   ...        0 min,  0.672 sec
 * total energy  :   -27.8873883 Eh     change       -0.1594308E-03 Eh
   gradient norm :     0.0026041 Eh/α   predicted    -0.1417355E-03 ( -11.10%)
   displ. norm   :     0.0634661 α      lambda       -0.4414708E-04
   maximum displ.:     0.0398824 α      in ANC's #1, #6, #4, ...

........................................................................
.............................. CYCLE    6 ..............................
........................................................................

 iter      E             dE          RMSdq      gap      omega  full diag
   1    -28.2098638 -0.282099E+02  0.341E-02    2.77       0.0  T
   2    -28.2098640 -0.259935E-06  0.174E-02    2.77       1.4  T
   3    -28.2098630  0.100728E-05  0.952E-03    2.77       2.5  T
   4    -28.2098643 -0.125300E-05  0.300E-03    2.77       8.1  T
   5    -28.2098643 -0.536765E-08  0.108E-03    2.77      22.4  T
   6    -28.2098643 -0.858284E-08  0.376E-04    2.77      64.5  T
   7    -28.2098643 -0.138592E-08  0.162E-04    2.77     149.5  T
     SCC iter.                  ...        0 min,  1.612 sec
     gradient                   ...        0 min,  0.533 sec
 * total energy  :   -27.8874246 Eh     change       -0.3631403E-04 Eh
   gradient norm :     0.0022057 Eh/α   predicted    -0.2216190E-04 ( -38.97%)
   displ. norm   :     0.1274091 α      lambda       -0.7164721E-04
   maximum displ.:     0.0936510 α      in ANC's #1, #6, #4, ...

........................................................................
.............................. CYCLE    7 ..............................
........................................................................

 iter      E             dE          RMSdq      gap      omega  full diag
   1    -28.2106277 -0.282106E+02  0.607E-02    2.78       0.0  T
   2    -28.2106288 -0.112181E-05  0.320E-02    2.78       1.0  T
   3    -28.2106256  0.320690E-05  0.174E-02    2.78       1.4  T
   4    -28.2106298 -0.416319E-05  0.553E-03    2.78       4.4  T
   5    -28.2106298  0.909111E-08  0.311E-03    2.78       7.8  T
   6    -28.2106298 -0.760017E-07  0.912E-04    2.78      26.6  T
   7    -28.2106299 -0.935505E-08  0.341E-04    2.78      71.1  T
     SCC iter.                  ...        0 min,  3.212 sec
     gradient                   ...        0 min,  0.504 sec
 * total energy  :   -27.8874787 Eh     change       -0.5406375E-04 Eh
   gradient norm :     0.0021072 Eh/α   predicted    -0.3640635E-04 ( -32.66%)
   displ. norm   :     0.1208509 α      lambda       -0.4956530E-04
   maximum displ.:     0.0971960 α      in ANC's #1, #6, #4, ...

........................................................................
.............................. CYCLE    8 ..............................
........................................................................

 iter      E             dE          RMSdq      gap      omega  full diag
   1    -28.2109940 -0.282110E+02  0.522E-02    2.79       0.0  T
   2    -28.2109949 -0.913399E-06  0.276E-02    2.79       1.0  T
   3    -28.2109929  0.204203E-05  0.145E-02    2.79       1.7  T
   4    -28.2109957 -0.280317E-05  0.462E-03    2.79       5.3  T
   5    -28.2109956  0.339443E-07  0.274E-03    2.79       8.8  T
   6    -28.2109957 -0.744246E-07  0.764E-04    2.79      31.7  T
   7    -28.2109957 -0.573004E-08  0.329E-04    2.79      73.8  T
     SCC iter.                  ...        0 min,  2.856 sec
     gradient                   ...        0 min,  0.541 sec
 * total energy  :   -27.8875208 Eh     change       -0.4211080E-04 Eh
   gradient norm :     0.0031098 Eh/α   predicted    -0.2514407E-04 ( -40.29%)
   displ. norm   :     0.1151620 α      lambda       -0.4965025E-04
   maximum displ.:     0.0927536 α      in ANC's #1, #6, #3, ...

........................................................................
.............................. CYCLE    9 ..............................
........................................................................

 iter      E             dE          RMSdq      gap      omega  full diag
   1    -28.2111135 -0.282111E+02  0.467E-02    2.79       0.0  T
   2    -28.2111141 -0.668109E-06  0.248E-02    2.79       1.0  T
   3    -28.2111127  0.145617E-05  0.125E-02    2.79       1.9  T
   4    -28.2111147 -0.202077E-05  0.389E-03    2.79       6.2  T
   5    -28.2111147  0.997128E-08  0.177E-03    2.79      13.7  T
   6    -28.2111147 -0.328964E-07  0.547E-04    2.79      44.4  T
   7    -28.2111147 -0.153561E-08  0.284E-04    2.79      85.4  T
     SCC iter.                  ...        0 min,  3.909 sec
     gradient                   ...        0 min,  0.545 sec
 * total energy  :   -27.8875665 Eh     change       -0.4570344E-04 Eh
   gradient norm :     0.0032686 Eh/α   predicted    -0.2515257E-04 ( -44.97%)
   displ. norm   :     0.1726081 α      lambda       -0.7544396E-04
   maximum displ.:     0.1325588 α      in ANC's #1, #3, #2, ...

........................................................................
.............................. CYCLE   10 ..............................
........................................................................

 iter      E             dE          RMSdq      gap      omega  full diag
   1    -28.2108127 -0.282108E+02  0.705E-02    2.79       0.0  T
   2    -28.2108144 -0.171418E-05  0.371E-02    2.79       1.0  T
   3    -28.2108126  0.186605E-05  0.157E-02    2.79       1.5  T
   4    -28.2108150 -0.247496E-05  0.635E-03    2.79       3.8  T
   5    -28.2108152 -0.188427E-06  0.314E-03    2.79       7.7  T
   6    -28.2108153 -0.318904E-07  0.132E-03    2.79      18.4  T
   7    -28.2108153 -0.200557E-07  0.484E-04    2.79      50.1  T
   8    -28.2108153 -0.328601E-09  0.136E-04    2.79     178.7  T
     SCC iter.                  ...        0 min,  3.447 sec
     gradient                   ...        0 min,  0.743 sec
 * total energy  :   -27.8876348 Eh     change       -0.6828939E-04 Eh
   gradient norm :     0.0030220 Eh/α   predicted    -0.3884680E-04 ( -43.11%)
   displ. norm   :     0.3212052 α      lambda       -0.1214569E-03
   maximum displ.:     0.2373187 α      in ANC's #1, #3, #2, ...

........................................................................
.............................. CYCLE   11 ..............................
........................................................................

 iter      E             dE          RMSdq      gap      omega  full diag
   1    -28.2094733 -0.282095E+02  0.135E-01    2.79       0.0  T
   2    -28.2094794 -0.609399E-05  0.700E-02    2.79       1.0  T
   3    -28.2094752  0.423572E-05  0.264E-02    2.79       1.0  T
   4    -28.2094803 -0.508631E-05  0.130E-02    2.79       1.9  T
   5    -28.2094815 -0.117959E-05  0.630E-03    2.79       3.9  T
   6    -28.2094816 -0.140313E-06  0.238E-03    2.79      10.2  T
   7    -28.2094817 -0.622495E-07  0.951E-04    2.79      25.5  T
   8    -28.2094817 -0.139552E-08  0.276E-04    2.79      87.8  T
     SCC iter.                  ...        0 min,  3.045 sec
     gradient                   ...        0 min,  0.653 sec
 * total energy  :   -27.8877312 Eh     change       -0.9643022E-04 Eh
   gradient norm :     0.0045927 Eh/α   predicted    -0.6699483E-04 ( -30.53%)
   displ. norm   :     0.3964615 α      lambda       -0.1137907E-03
   maximum displ.:     0.2893953 α      in ANC's #1, #3, #4, ...

........................................................................
.............................. CYCLE   12 ..............................
........................................................................

 iter      E             dE          RMSdq      gap      omega  full diag
   1    -28.2075021 -0.282075E+02  0.165E-01    2.79       0.0  T
   2    -28.2075119 -0.977525E-05  0.860E-02    2.79       1.0  T
   3    -28.2075074  0.453071E-05  0.309E-02    2.79       1.0  T
   4    -28.2075122 -0.485238E-05  0.163E-02    2.79       1.5  T
   5    -28.2075145 -0.230242E-05  0.783E-03    2.79       3.1  T
   6    -28.2075147 -0.209831E-06  0.279E-03    2.79       8.7  T
   7    -28.2075148 -0.844616E-07  0.119E-03    2.79      20.4  T
   8    -28.2075148 -0.259222E-08  0.365E-04    2.79      66.4  T
   9    -28.2075148 -0.215106E-09  0.133E-04    2.79     182.4  T
     SCC iter.                  ...        0 min,  3.983 sec
     gradient                   ...        0 min,  0.633 sec
 * total energy  :   -27.8877879 Eh     change       -0.5670523E-04 Eh
   gradient norm :     0.0077609 Eh/α   predicted    -0.6584034E-04 (  16.11%)
   displ. norm   :     0.0542148 α      lambda       -0.8628936E-04
   maximum displ.:     0.0336311 α      in ANC's #1, #4, #2, ...

........................................................................
.............................. CYCLE   13 ..............................
........................................................................

 iter      E             dE          RMSdq      gap      omega  full diag
   1    -28.2095244 -0.282095E+02  0.315E-02    2.79       0.0  T
   2    -28.2095275 -0.313397E-05  0.196E-02    2.79       1.2  T
   3    -28.2095277 -0.180904E-06  0.107E-02    2.79       2.3  T
   4    -28.2095274  0.313222E-06  0.526E-03    2.79       4.6  T
   5    -28.2095278 -0.403148E-06  0.100E-03    2.79      24.2  T
   6    -28.2095278 -0.107180E-08  0.470E-04    2.79      51.6  T
   7    -28.2095278 -0.954369E-09  0.207E-04    2.79     116.9  T
     SCC iter.                  ...        0 min,  2.709 sec
     gradient                   ...        0 min,  0.550 sec
 * total energy  :   -27.8878477 Eh     change       -0.5980838E-04 Eh
   gradient norm :     0.0039856 Eh/α   predicted    -0.4327056E-04 ( -27.65%)
   displ. norm   :     0.2636015 α      lambda       -0.1103543E-03
   maximum displ.:     0.1683762 α      in ANC's #1, #4, #2, ...

........................................................................
.............................. CYCLE   14 ..............................
........................................................................

 iter      E             dE          RMSdq      gap      omega  full diag
   1    -28.2101901 -0.282102E+02  0.111E-01    2.79       0.0  T
   2    -28.2101935 -0.337532E-05  0.582E-02    2.79       1.0  T
   3    -28.2101867  0.685244E-05  0.280E-02    2.79       1.0  T
   4    -28.2101944 -0.777601E-05  0.115E-02    2.79       2.1  T
   5    -28.2101955 -0.107456E-05  0.428E-03    2.79       5.7  T
   6    -28.2101955 -0.230053E-07  0.944E-04    2.79      25.7  T
   7    -28.2101955 -0.556762E-08  0.573E-04    2.79      42.4  T
     SCC iter.                  ...        0 min,  2.150 sec
     gradient                   ...        0 min,  0.634 sec
 * total energy  :   -27.8879368 Eh     change       -0.8900963E-04 Eh
   gradient norm :     0.0028886 Eh/α   predicted    -0.5901295E-04 ( -33.70%)
   displ. norm   :     0.4801055 α      lambda       -0.1591837E-03
   maximum displ.:     0.2855362 α      in ANC's #1, #4, #2, ...

........................................................................
.............................. CYCLE   15 ..............................
........................................................................

 iter      E             dE          RMSdq      gap      omega  full diag
   1    -28.2080070 -0.282080E+02  0.191E-01    2.80       0.0  T
   2    -28.2080155 -0.855392E-05  0.102E-01    2.79       1.0  T
   3    -28.2079916  0.239433E-04  0.492E-02    2.80       1.0  T
   4    -28.2080197 -0.281422E-04  0.172E-02    2.79       1.4  T
   5    -28.2080213 -0.156644E-05  0.641E-03    2.79       3.8  T
   6    -28.2080213 -0.653114E-07  0.142E-03    2.79      17.0  T
   7    -28.2080213 -0.103649E-08  0.927E-04    2.79      26.2  T
   8    -28.2080213 -0.286322E-08  0.423E-04    2.79      57.3  T
     SCC iter.                  ...        0 min,  2.304 sec
     gradient                   ...        0 min,  0.618 sec
 * total energy  :   -27.8880229 Eh     change       -0.8617976E-04 Eh
   gradient norm :     0.0074384 Eh/α   predicted    -0.9793166E-04 (  13.64%)
   displ. norm   :     0.1336385 α      lambda       -0.1847704E-03
   maximum displ.:     0.0737805 α      in ANC's #5, #4, #2, ...

........................................................................
.............................. CYCLE   16 ..............................
........................................................................

 iter      E             dE          RMSdq      gap      omega  full diag
   1    -28.2118122 -0.282118E+02  0.640E-02    2.79       0.0  T
   2    -28.2118137 -0.145024E-05  0.355E-02    2.79       1.0  T
   3    -28.2118082  0.547325E-05  0.238E-02    2.79       1.0  T
   4    -28.2118158 -0.756382E-05  0.659E-03    2.79       3.7  T
   5    -28.2118159 -0.113494E-06  0.201E-03    2.79      12.1  T
   6    -28.2118159 -0.399463E-08  0.873E-04    2.79      27.8  T
   7    -28.2118159 -0.583290E-08  0.447E-04    2.79      54.3  T
     SCC iter.                  ...        0 min,  2.798 sec
     gradient                   ...        0 min,  0.632 sec
 * total energy  :   -27.8881125 Eh     change       -0.8953816E-04 Eh
   gradient norm :     0.0066757 Eh/α   predicted    -0.9403480E-04 (   5.02%)
   displ. norm   :     0.2876937 α      lambda       -0.1161624E-03
   maximum displ.:     0.1554022 α      in ANC's #1, #4, #2, ...

........................................................................
.............................. CYCLE   17 ..............................
........................................................................

 iter      E             dE          RMSdq      gap      omega  full diag
   1    -28.2101073 -0.282101E+02  0.104E-01    2.80       0.0  T
   2    -28.2101098 -0.253142E-05  0.569E-02    2.79       1.0  T
   3    -28.2101038  0.599871E-05  0.249E-02    2.79       1.0  T
   4    -28.2101109 -0.709667E-05  0.915E-03    2.79       2.7  T
   5    -28.2101113 -0.354398E-06  0.394E-03    2.79       6.2  T
   6    -28.2101114 -0.779348E-07  0.145E-03    2.79      16.8  T
   7    -28.2101114 -0.191177E-07  0.635E-04    2.79      38.2  T
   8    -28.2101114 -0.439794E-09  0.245E-04    2.79      99.0  T
     SCC iter.                  ...        0 min,  2.449 sec
     gradient                   ...        0 min,  0.727 sec
 * total energy  :   -27.8882008 Eh     change       -0.8830389E-04 Eh
   gradient norm :     0.0066466 Eh/α   predicted    -0.6288753E-04 ( -28.78%)
   displ. norm   :     0.2727420 α      lambda       -0.1907025E-03
   maximum displ.:     0.1363167 α      in ANC's #2, #1, #4, ...

........................................................................
.............................. CYCLE   18 ..............................
........................................................................

 iter      E             dE          RMSdq      gap      omega  full diag
   1    -28.2094770 -0.282095E+02  0.101E-01    2.79       0.0  T
   2    -28.2094824 -0.536978E-05  0.592E-02    2.79       1.0  T
   3    -28.2094749  0.745877E-05  0.337E-02    2.79       1.0  T
   4    -28.2094860 -0.110301E-04  0.999E-03    2.79       2.4  T
   5    -28.2094865 -0.499734E-06  0.487E-03    2.79       5.0  T
   6    -28.2094866 -0.101589E-06  0.264E-03    2.79       9.2  T
   7    -28.2094866 -0.713283E-07  0.731E-04    2.79      33.2  T
   8    -28.2094867 -0.315431E-09  0.261E-04    2.79      92.9  T
     SCC iter.                  ...        0 min,  2.559 sec
     gradient                   ...        0 min,  0.590 sec
 * total energy  :   -27.8883064 Eh     change       -0.1055985E-03 Eh
   gradient norm :     0.0050109 Eh/α   predicted    -0.1024431E-03 (  -2.99%)
   displ. norm   :     0.2392958 α      lambda       -0.1161643E-03
   maximum displ.:     0.1406088 α      in ANC's #2, #4, #6, ...

........................................................................
.............................. CYCLE   19 ..............................
........................................................................

 iter      E             dE          RMSdq      gap      omega  full diag
   1    -28.2083575 -0.282084E+02  0.830E-02    2.78       0.0  T
   2    -28.2083606 -0.307560E-05  0.467E-02    2.79       1.0  T
   3    -28.2083539  0.668301E-05  0.283E-02    2.78       1.0  T
   4    -28.2083636 -0.973576E-05  0.767E-03    2.79       3.2  T
   5    -28.2083636  0.716965E-07  0.424E-03    2.79       5.7  T
   6    -28.2083638 -0.198325E-06  0.132E-03    2.79      18.3  T
   7    -28.2083638 -0.200136E-07  0.502E-04    2.79      48.3  T
   8    -28.2083638 -0.162622E-09  0.161E-04    2.79     150.9  T
     SCC iter.                  ...        0 min,  3.021 sec
     gradient                   ...        0 min,  0.446 sec
 * total energy  :   -27.8883650 Eh     change       -0.5859204E-04 Eh
   gradient norm :     0.0085992 Eh/α   predicted    -0.6140602E-04 (   4.80%)
   displ. norm   :     0.1655659 α      lambda       -0.3129867E-03
   maximum displ.:     0.0962371 α      in ANC's #2, #1, #6, ...

........................................................................
.............................. CYCLE   20 ..............................
........................................................................

 iter      E             dE          RMSdq      gap      omega  full diag
   1    -28.2147062 -0.282147E+02  0.982E-02    2.76       0.0  T
   2    -28.2147214 -0.151988E-04  0.647E-02    2.77       1.0  T
   3    -28.2147388 -0.174521E-04  0.389E-02    2.77       1.0  T
   4    -28.2147460 -0.720884E-05  0.114E-02    2.77       2.1  T
   5    -28.2147471 -0.107167E-05  0.502E-03    2.77       4.8  T
   6    -28.2147474 -0.245113E-06  0.183E-03    2.77      13.3  T
   7    -28.2147474 -0.139283E-07  0.640E-04    2.77      37.9  T
   8    -28.2147474 -0.706837E-09  0.272E-04    2.77      89.1  T
     SCC iter.                  ...        0 min,  3.019 sec
     gradient                   ...        0 min,  0.569 sec
 * total energy  :   -27.8884035 Eh     change       -0.3855739E-04 Eh
   gradient norm :     0.0090893 Eh/α   predicted    -0.1607849E-03 ( 317.00%)
   displ. norm   :     0.2110623 α      lambda       -0.2452011E-03
   maximum displ.:     0.1106597 α      in ANC's #2, #4, #1, ...
 * RMSD in coord.:     0.8114681 α      energy gain  -0.2119392E-01 Eh

generating ANC from exact Hessian ...
Using Lindh-Hessian (1995)
 Shifting diagonal of input Hessian by    5.8027272290505326E-003
 Lowest  eigenvalues of input Hessian
    0.000000    0.000000    0.000000    0.000000    0.000000    0.000000
    0.010000    0.013539    0.016042    0.016921    0.017770    0.025481
    0.029371    0.035457    0.040066    0.057644    0.066254    0.073602
 Highest eigenvalues
    1.399939    1.509833    1.777605    1.989003    2.218932    2.535789


........................................................................
.............................. CYCLE   21 ..............................
........................................................................

 iter      E             dE          RMSdq      gap      omega  full diag
   1    -28.2109865 -0.282110E+02  0.867E-02    2.77       0.0  T
   2    -28.2109904 -0.381385E-05  0.489E-02    2.77       1.0  T
   3    -28.2109845  0.583752E-05  0.254E-02    2.77       1.0  T
   4    -28.2109912 -0.666908E-05  0.861E-03    2.77       2.8  T
   5    -28.2109919 -0.718858E-06  0.301E-03    2.77       8.1  T
   6    -28.2109919 -0.952307E-08  0.104E-03    2.77      23.3  T
   7    -28.2109919 -0.119961E-07  0.468E-04    2.77      51.8  T
   8    -28.2109919 -0.124866E-08  0.245E-04    2.77      99.2  T
     SCC iter.                  ...        0 min,  2.503 sec
     gradient                   ...        0 min,  0.569 sec
 * total energy  :   -27.8885478 Eh     change       -0.1442959E-03 Eh
   gradient norm :     0.0062987 Eh/α   predicted     0.0000000E+00 (-100.00%)
   displ. norm   :     0.0602549 α      lambda       -0.1214543E-03
   maximum displ.:     0.0379825 α      in ANC's #2, #1, #4, ...

........................................................................
.............................. CYCLE   22 ..............................
........................................................................

 iter      E             dE          RMSdq      gap      omega  full diag
   1    -28.2120472 -0.282120E+02  0.341E-02    2.77       0.0  T
   2    -28.2120489 -0.168483E-05  0.218E-02    2.77       1.1  T
   3    -28.2120492 -0.289803E-06  0.128E-02    2.77       1.9  T
   4    -28.2120500 -0.852592E-06  0.475E-03    2.77       5.1  T
   5    -28.2120502 -0.183546E-06  0.165E-03    2.77      14.7  T
   6    -28.2120502 -0.855554E-08  0.954E-04    2.77      25.4  T
   7    -28.2120503 -0.107829E-07  0.219E-04    2.77     110.6  T
     SCC iter.                  ...        0 min,  2.902 sec
     gradient                   ...        0 min,  0.721 sec
 * total energy  :   -27.8886385 Eh     change       -0.9063764E-04 Eh
   gradient norm :     0.0027820 Eh/α   predicted    -0.6094692E-04 ( -32.76%)
   displ. norm   :     0.1195344 α      lambda       -0.1100026E-03
   maximum displ.:     0.0850119 α      in ANC's #2, #1, #4, ...

........................................................................
.............................. CYCLE   23 ..............................
........................................................................

 iter      E             dE          RMSdq      gap      omega  full diag
   1    -28.2126169 -0.282126E+02  0.444E-02    2.78       0.0  T
   2    -28.2126197 -0.283417E-05  0.280E-02    2.78       1.0  T
   3    -28.2126202 -0.467368E-06  0.164E-02    2.78       1.5  T
   4    -28.2126214 -0.123521E-05  0.622E-03    2.78       3.9  T
   5    -28.2126218 -0.343346E-06  0.218E-03    2.78      11.1  T
   6    -28.2126218 -0.104392E-07  0.125E-03    2.78      19.4  T
   7    -28.2126218 -0.201908E-07  0.273E-04    2.78      88.8  T
   8    -28.2126218 -0.555112E-10  0.111E-04    2.78     218.1  T
     SCC iter.                  ...        0 min,  2.958 sec
     gradient                   ...        0 min,  0.727 sec
 * total energy  :   -27.8887183 Eh     change       -0.7989065E-04 Eh
   gradient norm :     0.0018539 Eh/α   predicted    -0.5578788E-04 ( -30.17%)
   displ. norm   :     0.2256029 α      lambda       -0.8486233E-04
   maximum displ.:     0.1677720 α      in ANC's #2, #1, #4, ...

........................................................................
.............................. CYCLE   24 ..............................
........................................................................

 iter      E             dE          RMSdq      gap      omega  full diag
   1    -28.2118824 -0.282119E+02  0.677E-02    2.79       0.0  T
   2    -28.2118858 -0.333662E-05  0.409E-02    2.79       1.0  T
   3    -28.2118829  0.281401E-05  0.233E-02    2.79       1.0  T
   4    -28.2118874 -0.440942E-05  0.693E-03    2.79       3.5  T
   5    -28.2118878 -0.463474E-06  0.267E-03    2.79       9.1  T
   6    -28.2118878 -0.120428E-07  0.144E-03    2.79      16.8  T
   7    -28.2118879 -0.304755E-07  0.304E-04    2.79      79.7  T
   8    -28.2118879 -0.480220E-10  0.107E-04    2.79     226.7  T
     SCC iter.                  ...        0 min,  3.066 sec
     gradient                   ...        0 min,  0.624 sec
 * total energy  :   -27.8888030 Eh     change       -0.8463087E-04 Eh
   gradient norm :     0.0044909 Eh/α   predicted    -0.4339324E-04 ( -48.73%)
   displ. norm   :     0.0931795 α      lambda       -0.5810583E-04
   maximum displ.:     0.0673505 α      in ANC's #2, #1, #3, ...

........................................................................
.............................. CYCLE   25 ..............................
........................................................................

 iter      E             dE          RMSdq      gap      omega  full diag
   1    -28.2118066 -0.282118E+02  0.266E-02    2.79       0.0  T
   2    -28.2118068 -0.163091E-06  0.156E-02    2.79       1.6  T
   3    -28.2118065  0.314914E-06  0.548E-03    2.79       4.4  T
   4    -28.2118069 -0.369002E-06  0.167E-03    2.79      14.5  T
   5    -28.2118069 -0.207571E-07  0.636E-04    2.79      38.1  T
   6    -28.2118069 -0.653696E-09  0.349E-04    2.79      69.5  T
     SCC iter.                  ...        0 min,  1.957 sec
     gradient                   ...        0 min,  0.683 sec
 * total energy  :   -27.8888539 Eh     change       -0.5095001E-04 Eh
   gradient norm :     0.0040636 Eh/α   predicted    -0.2930666E-04 ( -42.48%)
   displ. norm   :     0.2527479 α      lambda       -0.1509621E-03
   maximum displ.:     0.1804437 α      in ANC's #2, #1, #3, ...

........................................................................
.............................. CYCLE   26 ..............................
........................................................................

 iter      E             dE          RMSdq      gap      omega  full diag
   1    -28.2110966 -0.282111E+02  0.738E-02    2.79       0.0  T
   2    -28.2110995 -0.292329E-05  0.433E-02    2.79       1.0  T
   3    -28.2110970  0.246935E-05  0.199E-02    2.79       1.2  T
   4    -28.2111002 -0.316334E-05  0.682E-03    2.79       3.6  T
   5    -28.2111007 -0.461489E-06  0.226E-03    2.79      10.8  T
   6    -28.2111007  0.781145E-08  0.139E-03    2.79      17.5  T
   7    -28.2111007 -0.275483E-07  0.338E-04    2.79      71.8  T
   8    -28.2111007 -0.282910E-09  0.149E-04    2.79     162.4  T
     SCC iter.                  ...        0 min,  2.617 sec
     gradient                   ...        0 min,  0.687 sec
 * total energy  :   -27.8889480 Eh     change       -0.9403474E-04 Eh
   gradient norm :     0.0053883 Eh/α   predicted    -0.8030196E-04 ( -14.60%)
   displ. norm   :     0.0851991 α      lambda       -0.7496856E-04
   maximum displ.:     0.0502676 α      in ANC's #2, #1, #4, ...

........................................................................
.............................. CYCLE   27 ..............................
........................................................................

 iter      E             dE          RMSdq      gap      omega  full diag
   1    -28.2120870 -0.282121E+02  0.348E-02    2.79       0.0  T
   2    -28.2120888 -0.184544E-05  0.200E-02    2.79       1.2  T
   3    -28.2120888  0.129030E-07  0.114E-02    2.79       2.1  T
   4    -28.2120893 -0.447426E-06  0.525E-03    2.79       4.6  T
   5    -28.2120895 -0.285859E-06  0.177E-03    2.79      13.7  T
   6    -28.2120895 -0.128907E-08  0.955E-04    2.79      25.4  T
   7    -28.2120896 -0.127301E-07  0.231E-04    2.79     105.2  T
     SCC iter.                  ...        0 min,  1.572 sec
     gradient                   ...        0 min,  0.596 sec
 * total energy  :   -27.8889996 Eh     change       -0.5165916E-04 Eh
   gradient norm :     0.0035281 Eh/α   predicted    -0.3775715E-04 ( -26.91%)
   displ. norm   :     0.2009028 α      lambda       -0.7212251E-04
   maximum displ.:     0.1367978 α      in ANC's #2, #1, #3, ...

........................................................................
.............................. CYCLE   28 ..............................
........................................................................

 iter      E             dE          RMSdq      gap      omega  full diag
   1    -28.2115924 -0.282116E+02  0.603E-02    2.80       0.0  T
   2    -28.2115942 -0.181850E-05  0.347E-02    2.80       1.0  T
   3    -28.2115939  0.348376E-06  0.123E-02    2.79       2.0  T
   4    -28.2115942 -0.317378E-06  0.545E-03    2.80       4.4  T
   5    -28.2115945 -0.323553E-06  0.203E-03    2.80      11.9  T
   6    -28.2115945 -0.931346E-08  0.763E-04    2.80      31.8  T
   7    -28.2115946 -0.755924E-08  0.326E-04    2.80      74.5  T
     SCC iter.                  ...        0 min,  2.385 sec
     gradient                   ...        0 min,  0.472 sec
 * total energy  :   -27.8890457 Eh     change       -0.4607091E-04 Eh
   gradient norm :     0.0046882 Eh/α   predicted    -0.3751462E-04 ( -18.57%)
   displ. norm   :     0.1201273 α      lambda       -0.7728341E-04
   maximum displ.:     0.0818214 α      in ANC's #1, #2, #4, ...

........................................................................
.............................. CYCLE   29 ..............................
........................................................................

 iter      E             dE          RMSdq      gap      omega  full diag
   1    -28.2128336 -0.282128E+02  0.455E-02    2.80       0.0  T
   2    -28.2128345 -0.987816E-06  0.250E-02    2.80       1.0  T
   3    -28.2128339  0.643893E-06  0.987E-03    2.80       2.5  T
   4    -28.2128346 -0.715301E-06  0.425E-03    2.80       5.7  T
   5    -28.2128348 -0.192893E-06  0.182E-03    2.80      13.4  T
   6    -28.2128348 -0.830155E-08  0.798E-04    2.80      30.4  T
   7    -28.2128348 -0.754903E-08  0.265E-04    2.80      91.4  T
     SCC iter.                  ...        0 min,  1.871 sec
     gradient                   ...        0 min,  0.454 sec
 * total energy  :   -27.8890907 Eh     change       -0.4499942E-04 Eh
   gradient norm :     0.0023969 Eh/α   predicted    -0.3919848E-04 ( -12.89%)
   displ. norm   :     0.1703354 α      lambda       -0.3621514E-04
   maximum displ.:     0.1147345 α      in ANC's #2, #1, #5, ...

........................................................................
.............................. CYCLE   30 ..............................
........................................................................

 iter      E             dE          RMSdq      gap      omega  full diag
   1    -28.2120208 -0.282120E+02  0.500E-02    2.81       0.0  T
   2    -28.2120214 -0.649920E-06  0.287E-02    2.80       1.0  T
   3    -28.2120202  0.125610E-05  0.107E-02    2.81       2.3  T
   4    -28.2120217 -0.153135E-05  0.301E-03    2.81       8.1  T
   5    -28.2120218 -0.470626E-07  0.964E-04    2.81      25.2  T
   6    -28.2120218 -0.462716E-09  0.353E-04    2.81      68.7  T
     SCC iter.                  ...        0 min,  1.498 sec
     gradient                   ...        0 min,  0.395 sec
 * total energy  :   -27.8891097 Eh     change       -0.1897295E-04 Eh
   gradient norm :     0.0035405 Eh/α   predicted    -0.1863118E-04 (  -1.80%)
   displ. norm   :     0.0544323 α      lambda       -0.3158267E-04
   maximum displ.:     0.0345797 α      in ANC's #1, #2, #5, ...

........................................................................
.............................. CYCLE   31 ..............................
........................................................................

 iter      E             dE          RMSdq      gap      omega  full diag
   1    -28.2126908 -0.282127E+02  0.212E-02    2.81       0.0  T
   2    -28.2126914 -0.627360E-06  0.134E-02    2.81       1.8  T
   3    -28.2126914  0.834125E-07  0.733E-03    2.81       3.3  T
   4    -28.2126917 -0.375695E-06  0.220E-03    2.81      11.0  T
   5    -28.2126918 -0.302561E-07  0.897E-04    2.81      27.0  T
   6    -28.2126918 -0.553911E-09  0.153E-04    2.81     158.8  T
     SCC iter.                  ...        0 min,  1.557 sec
     gradient                   ...        0 min,  0.539 sec
 * total energy  :   -27.8891323 Eh     change       -0.2265783E-04 Eh
   gradient norm :     0.0020853 Eh/α   predicted    -0.1583949E-04 ( -30.09%)
   displ. norm   :     0.1308107 α      lambda       -0.2555396E-04
   maximum displ.:     0.0851436 α      in ANC's #2, #1, #5, ...

........................................................................
.............................. CYCLE   32 ..............................
........................................................................

 iter      E             dE          RMSdq      gap      omega  full diag
   1    -28.2126343 -0.282126E+02  0.392E-02    2.81       0.0  T
   2    -28.2126346 -0.362890E-06  0.227E-02    2.81       1.1  T
   3    -28.2126334  0.121742E-05  0.102E-02    2.81       2.4  T
   4    -28.2126349 -0.150205E-05  0.260E-03    2.81       9.3  T
   5    -28.2126349 -0.247190E-08  0.816E-04    2.81      29.7  T
   6    -28.2126349 -0.293023E-08  0.414E-04    2.81      58.6  T
     SCC iter.                  ...        0 min,  1.046 sec
     gradient                   ...        0 min,  0.411 sec
 * total energy  :   -27.8891489 Eh     change       -0.1655165E-04 Eh
   gradient norm :     0.0017377 Eh/α   predicted    -0.1299471E-04 ( -21.49%)
   displ. norm   :     0.0888719 α      lambda       -0.1180255E-04
   maximum displ.:     0.0539115 α      in ANC's #2, #1, #6, ...

........................................................................
.............................. CYCLE   33 ..............................
........................................................................

 iter      E             dE          RMSdq      gap      omega  full diag
   1    -28.2131806 -0.282132E+02  0.314E-02    2.81       0.0  T
   2    -28.2131808 -0.261379E-06  0.168E-02    2.81       1.4  T
   3    -28.2131808 -0.267907E-08  0.405E-03    2.81       6.0  T
   4    -28.2131808  0.107160E-08  0.233E-03    2.81      10.4  T
   5    -28.2131809 -0.433766E-07  0.973E-04    2.81      24.9  T
   6    -28.2131809 -0.731577E-08  0.301E-04    2.81      80.5  T
     SCC iter.                  ...        0 min,  1.665 sec
     gradient                   ...        0 min,  0.478 sec
 * total energy  :   -27.8891561 Eh     change       -0.7209488E-05 Eh
   gradient norm :     0.0009887 Eh/α   predicted    -0.5921256E-05 ( -17.87%)
   displ. norm   :     0.1293090 α      lambda       -0.6325498E-05
   maximum displ.:     0.0851013 α      in ANC's #1, #2, #6, ...

........................................................................
.............................. CYCLE   34 ..............................
........................................................................

 iter      E             dE          RMSdq      gap      omega  full diag
   1    -28.2122153 -0.282122E+02  0.405E-02    2.81       0.0  T
   2    -28.2122160 -0.685742E-06  0.224E-02    2.81       1.1  T
   3    -28.2122159  0.624822E-07  0.683E-03    2.81       3.5  T
   4    -28.2122160 -0.812024E-07  0.299E-03    2.81       8.1  T
   5    -28.2122161 -0.837385E-07  0.127E-03    2.81      19.1  T
   6    -28.2122161 -0.681480E-08  0.273E-04    2.81      88.9  T
   7    -28.2122161 -0.628937E-10  0.172E-04    2.81     141.1  T
     SCC iter.                  ...        0 min,  1.248 sec
     gradient                   ...        0 min,  0.448 sec
 * total energy  :   -27.8891538 Eh     change        0.2265140E-05 Eh
   gradient norm :     0.0021874 Eh/α   predicted    -0.3187372E-05 (-240.71%)
   displ. norm   :     0.0346336 α      lambda       -0.8004767E-05
   maximum displ.:     0.0250201 α      in ANC's #2, #1, #5, ...

........................................................................
.............................. CYCLE   35 ..............................
........................................................................

 iter      E             dE          RMSdq      gap      omega  full diag
   1    -28.2127241 -0.282127E+02  0.112E-02    2.81       0.0  T
   2    -28.2127241 -0.547359E-07  0.646E-03    2.81       3.8  T
   3    -28.2127241  0.296620E-07  0.195E-03    2.81      12.4  T
   4    -28.2127241 -0.366116E-07  0.723E-04    2.81      33.5  T
   5    -28.2127241 -0.407856E-08  0.275E-04    2.81      88.3  T
     SCC iter.                  ...        0 min,  1.884 sec
     gradient                   ...        0 min,  0.496 sec
 * total energy  :   -27.8891595 Eh     change       -0.5662021E-05 Eh
   gradient norm :     0.0009866 Eh/α   predicted    -0.4006692E-05 ( -29.24%)
   displ. norm   :     0.0585084 α      lambda       -0.2520459E-05
   maximum displ.:     0.0387983 α      in ANC's #2, #1, #6, ...

........................................................................
.............................. CYCLE   36 ..............................
........................................................................

 iter      E             dE          RMSdq      gap      omega  full diag
   1    -28.2132860 -0.282133E+02  0.193E-02    2.81       0.0  T
   2    -28.2132861 -0.169932E-06  0.105E-02    2.81       2.3  T
   3    -28.2132861  0.356212E-07  0.374E-03    2.81       6.5  T
   4    -28.2132861 -0.548137E-08  0.211E-03    2.81      11.5  T
   5    -28.2132862 -0.552982E-07  0.691E-04    2.81      35.1  T
   6    -28.2132862 -0.144016E-08  0.125E-04    2.81     194.0  T
     SCC iter.                  ...        0 min,  1.903 sec
     gradient                   ...        0 min,  0.570 sec
 * total energy  :   -27.8891596 Eh     change       -0.1308717E-06 Eh
   gradient norm :     0.0005422 Eh/α   predicted    -0.1262769E-05 ( 864.89%)
   displ. norm   :     0.0391665 α      lambda       -0.1184310E-05
   maximum displ.:     0.0266143 α      in ANC's #1, #2, #6, ...

   *** GEOMETRY OPTIMIZATION CONVERGED AFTER 36 ITERATIONS ***

------------------------------------------------------------------------
 total energy gain   :        -0.0219500 Eh      -13.7738 kcal/mol
 total RMSD          :         0.9026374 a0        0.4777 Å
 total power (kW/mol):        -1.6008265 (step)   -0.4545 (real)
------------------------------------------------------------------------

 ANCopt (total)                0 d,  0 h,  2 min,  6.791 sec
 optimizer setup                ...        0 min,  0.000 sec (  0.000%)
 model hessian                  ...        0 min,  0.006 sec (  0.005%)
 ANC generation                 ...        0 min,  0.001 sec (  0.001%)
 coordinate transformation      ...        0 min,  0.001 sec (  0.000%)
 single point calculation       ...        2 min,  4.652 sec ( 98.313%)
 optimization log               ...        0 min,  0.051 sec (  0.041%)
 hessian update                 ...        0 min,  2.053 sec (  1.619%)
 rational function              ...        0 min,  0.023 sec (  0.018%)

================
 final structure:
================
17
 xtb: 6.7.1 (edcfbbe)
O            0.84184558873779        1.93481409657074        0.59005014322020
S            0.34894106429887        0.62423223941221        1.00057356342775
N            1.26892141597367       -0.62255939552954        0.16051178398107
C            2.63779803448812       -0.68878748314144        0.61416669054028
N            0.98190361445230       -1.27727348875116       -0.93744175802256
C           -0.18189833828204       -1.22671599755483       -1.47461794350591
C           -1.27341381133394       -0.42479539591069       -1.00455902206320
C           -1.18673940956880        0.38275770913393        0.05714139229248
C           -2.27020386716076        1.26200130729690        0.57502537609954
H            2.65809521388405       -0.93605107871194        1.67664079352748
H            3.15558035161403       -1.45776688114614        0.04540578337279
H            3.13676944954377        0.27162418018189        0.46390346747258
H           -0.30640250751692       -1.83499811146357       -2.35637020837260
H           -2.20222836021808       -0.48355744802253       -1.55803162151871
H           -2.51662838980457        0.99047547683316        1.60225832712499
H           -1.92571823685461        2.29594145935273        0.58188018435102
H           -3.16662181225255        1.19065781145008       -0.03653795192709

 Bond Distances (Angstroems)
 ---------------------------
O1-S2=1.4591         S2-O1=1.4591         S2-N3=1.7625         S2-C8=1.8184         N3-S2=1.7625         N3-C4=1.4436         
N3-N5=1.3102         C4-N3=1.4436         C4-H10=1.0911        C4-H11=1.0876        C4-H12=1.0927        N5-N3=1.3102         
N5-C6=1.2828         C6-N5=1.2828         C6-C7=1.4337         C6-H13=1.0784        C7-C6=1.4337         C7-C8=1.3367         
C7-H14=1.0828        C8-S2=1.8184         C8-C7=1.3367         C8-C9=1.4883         C9-C8=1.4883         C9-H15=1.0907        
C9-H16=1.0898        C9-H17=1.0875        H10-C4=1.0911        H11-C4=1.0876        H12-C4=1.0927        H13-C6=1.0784        
H14-C7=1.0828        H15-C9=1.0907        H16-C9=1.0898        H17-C9=1.0875        
 C  H  Rav=1.0876 sigma=0.0045  Rmin=1.0784  Rmax=1.0927     8
 C  C  Rav=1.4196 sigma=0.0627  Rmin=1.3367  Rmax=1.4883     3
 N  C  Rav=1.3632 sigma=0.0804  Rmin=1.2828  Rmax=1.4436     2
 N  N  Rav=1.3102 sigma=0.0000  Rmin=1.3102  Rmax=1.3102     1
 S  C  Rav=1.8184 sigma=0.0000  Rmin=1.8184  Rmax=1.8184     1
 S  N  Rav=1.7625 sigma=0.0000  Rmin=1.7625  Rmax=1.7625     1
 S  O  Rav=1.4591 sigma=0.0000  Rmin=1.4591  Rmax=1.4591     1

 selected bond angles (degree)
 --------------------
N3-S2-O1=108.96                C8-S2-O1=104.99                C8-S2-N3= 95.72                C4-N3-S2=112.19                
N5-N3-S2=129.68                N5-N3-C4=116.63                H10-C4-N3=109.52               H11-C4-N3=108.63               
H11-C4-H10=109.89              H12-C4-N3=110.46               H12-C4-H10=108.94              H12-C4-H11=109.40              
C6-N5-N3=122.00                C7-C6-N5=125.13                H13-C6-N5=115.14               H13-C6-C7=119.71               
C8-C7-C6=123.30                H14-C7-C6=117.07               H14-C7-C8=119.63               C7-C8-S2=123.16                
C9-C8-S2=110.84                C9-C8-C7=125.88                H15-C9-C8=110.19               H16-C9-C8=109.42               
H16-C9-H15=107.56              H17-C9-C8=111.45               H17-C9-H15=109.09              H17-C9-H16=109.05              

 selected dihedral angles (degree)
 ---------------------------------
C4-N3-S2-O1= 69.03            C4-N3-S2-C8=177.04            N5-N3-S2-O1=263.72            N5-N3-S2-C8= 11.73            
H10-C4-N3-S2= 61.22           H10-C4-N3-N5=228.60           H11-C4-N3-S2=181.24           H11-C4-N3-N5=348.63           
H12-C4-N3-S2=301.23           H12-C4-N3-N5=108.62           C6-N5-N3-S2=348.84            C6-N5-N3-C4=184.08            
C7-C6-N5-N3=  3.14            H13-C6-N5-N3=182.04           C8-C7-C6-N5=  0.76            C8-C7-C6-H13=181.91           
H14-C7-C6-N5=180.11           H14-C7-C6-H13=  1.26          C7-C8-S2-O1=104.29            C7-C8-S2-N3=352.89            
C9-C8-S2-O1=287.99            C9-C8-S2-N3=176.59            S2-C8-C7-C6=  2.75            S2-C8-C7-H14=183.42           
C9-C8-C7-C6=178.48            C9-C8-C7-H14=359.15           H15-C9-C8-S2=296.22           H15-C9-C8-C7=120.04           
H16-C9-C8-S2= 54.29           H16-C9-C8-C7=238.11           H17-C9-C8-S2=174.97           H17-C9-C8-C7=358.79           
           -------------------------------------------------
          |                Final Singlepoint                |
           -------------------------------------------------

          ...................................................
          :                      SETUP                      :
          :.................................................:
          :  # basis functions                  50          :
          :  # atomic orbitals                  49          :
          :  # shells                           27          :
          :  # electrons                        50          :
          :  max. iterations                   250          :
          :  Hamiltonian                  GFN2-xTB          :
          :  restarted?                      false          :
          :  GBSA solvation                  false          :
          :  PC potential                    false          :
          :  electronic temp.          300.0000000     K    :
          :  accuracy                    1.0000000          :
          :  -> integral cutoff          0.2500000E+02      :
          :  -> integral neglect         0.1000000E-07      :
          :  -> SCF convergence          0.1000000E-05 Eh   :
          :  -> wf. convergence          0.1000000E-03 e    :
          :  Broyden damping             0.4000000          :
          :  net charge                          0          :
          :  unpaired electrons                  0          :
          ...................................................

 iter      E             dE          RMSdq      gap      omega  full diag
   1    -28.2132862 -0.282133E+02  0.769E-05    2.81       0.0  T
   2    -28.2132862 -0.873612E-11  0.506E-05    2.81     479.6  T
   3    -28.2132862 -0.602185E-11  0.353E-05    2.81     686.7  T

   *** convergence criteria satisfied after 3 iterations ***

         #    Occupation            Energy/Eh            Energy/eV
      -------------------------------------------------------------
         1        2.0000           -0.7605866             -20.6966
       ...           ...                  ...                  ...
        19        2.0000           -0.4765136             -12.9666
        20        2.0000           -0.4675185             -12.7218
        21        2.0000           -0.4446443             -12.0994
        22        2.0000           -0.4344702             -11.8225
        23        2.0000           -0.3935419             -10.7088
        24        2.0000           -0.3821041             -10.3976
        25        2.0000           -0.3696488             -10.0587 (HOMO)
        26                         -0.2662382              -7.2447 (LUMO)
        27                         -0.2193087              -5.9677
        28                         -0.1773933              -4.8271
        29                         -0.1406671              -3.8277
        30                         -0.0637372              -1.7344
       ...                                ...                  ...
        49                          0.9361259              25.4733
      -------------------------------------------------------------
                  HL-Gap            0.1034106 Eh            2.8139 eV
             Fermi-level           -0.3179435 Eh           -8.6517 eV

 SCC (total)                   0 d,  0 h,  0 min,  1.779 sec
 SCC setup                      ...        0 min,  0.042 sec (  2.355%)
 Dispersion                     ...        0 min,  0.106 sec (  5.944%)
 classical contributions        ...        0 min,  0.039 sec (  2.209%)
 integral evaluation            ...        0 min,  0.184 sec ( 10.317%)
 iterations                     ...        0 min,  0.872 sec ( 49.038%)
 molecular gradient             ...        0 min,  0.536 sec ( 30.128%)
 printout                       ...        0 min,  0.000 sec (  0.006%)

         :::::::::::::::::::::::::::::::::::::::::::::::::::::
         ::                     SUMMARY                     ::
         :::::::::::::::::::::::::::::::::::::::::::::::::::::
         :: total energy             -27.889159613580 Eh    ::
         :: gradient norm              0.000542891349 Eh/a0 ::
         :: HOMO-LUMO gap              2.813946349511 eV    ::
         ::.................................................::
         :: SCC energy               -28.213244627904 Eh    ::
         :: -> isotropic ES            0.042983814834 Eh    ::
         :: -> anisotropic ES          0.000504315811 Eh    ::
         :: -> anisotropic XC          0.016667006587 Eh    ::
         :: -> dispersion             -0.015132875961 Eh    ::
         :: repulsion energy           0.324085014324 Eh    ::
         :: add. restraining           0.000000000000 Eh    ::
         :: total charge              -0.000000000000 e     ::
         :::::::::::::::::::::::::::::::::::::::::::::::::::::

           -------------------------------------------------
          |                Property Printout                |
           -------------------------------------------------

    * Orbital Energies and Occupations

         #    Occupation            Energy/Eh            Energy/eV
      -------------------------------------------------------------
         1        2.0000           -0.7605866             -20.6966
       ...           ...                  ...                  ...
        13        2.0000           -0.5095759             -13.8663
        14        2.0000           -0.5081320             -13.8270
        15        2.0000           -0.4951904             -13.4748
        16        2.0000           -0.4897724             -13.3274
        17        2.0000           -0.4857906             -13.2190
        18        2.0000           -0.4831139             -13.1462
        19        2.0000           -0.4765136             -12.9666
        20        2.0000           -0.4675185             -12.7218
        21        2.0000           -0.4446443             -12.0994
        22        2.0000           -0.4344702             -11.8225
        23        2.0000           -0.3935419             -10.7088
        24        2.0000           -0.3821041             -10.3976
        25        2.0000           -0.3696488             -10.0587 (HOMO)
        26                         -0.2662382              -7.2447 (LUMO)
        27                         -0.2193087              -5.9677
        28                         -0.1773933              -4.8271
        29                         -0.1406671              -3.8277
        30                         -0.0637372              -1.7344
        31                         -0.0249729              -0.6795
        32                          0.0491830               1.3383
        33                          0.0902708               2.4564
        34                          0.0996349               2.7112
        35                          0.1292800               3.5179
        36                          0.1403888               3.8202
       ...                                ...                  ...
        49                          0.9361259              25.4733
      -------------------------------------------------------------
                  HL-Gap            0.1034106 Eh            2.8139 eV
             Fermi-level           -0.3179435 Eh           -8.6517 eV

     #   Z          covCN         q      C6AA      α(0)
     1   8 O        0.860    -0.489    23.546     6.506
     2  16 S        2.907     0.468   123.438    18.699
     3   7 N        2.834    -0.065    22.501     7.045
     4   6 C        3.777    -0.053    21.558     6.615
     5   7 N        1.922    -0.145    24.920     7.402
     6   6 C        2.862     0.019    27.588     8.609
     7   6 C        2.921    -0.045    29.129     8.851
     8   6 C        2.937    -0.030    28.756     8.795
     9   6 C        3.802    -0.111    22.627     6.772
    10   1 H        0.924     0.053     2.279     2.361
    11   1 H        0.925     0.080     1.984     2.203
    12   1 H        0.924     0.064     2.154     2.295
    13   1 H        0.926     0.043     2.405     2.425
    14   1 H        0.925     0.042     2.429     2.437
    15   1 H        0.924     0.052     2.300     2.372
    16   1 H        0.925     0.068     2.102     2.267
    17   1 H        0.925     0.052     2.294     2.369

 Mol. C6AA /au·bohr⁶  :       3958.717196
 Mol. C8AA /au·bohr⁸  :     104141.419965
 Mol. α(0) /au        :         98.022761


Wiberg/Mayer (AO) data.
largest (>0.10) Wiberg bond orders for each atom

 ---------------------------------------------------------------------------
     #   Z sym  total        # sym  WBO       # sym  WBO       # sym  WBO
 ---------------------------------------------------------------------------
     1   8 O    2.053 --     2 S    1.838
     2  16 S    3.914 --     1 O    1.838     8 C    0.944     3 N    0.934
     3   7 N    3.495 --     5 N    1.221     4 C    0.996     2 S    0.934
                             6 C    0.144
     4   6 C    3.968 --     3 N    0.996    11 H    0.977    10 H    0.977
                            12 H    0.973
     5   7 N    3.118 --     6 C    1.640     3 N    1.221
     6   6 C    3.979 --     5 N    1.640     7 C    1.157    13 H    0.961
                             3 N    0.144
     7   6 C    3.992 --     8 C    1.748     6 C    1.157    14 H    0.955
     8   6 C    3.975 --     7 C    1.748     9 C    1.035     2 S    0.944
     9   6 C    3.994 --     8 C    1.035    17 H    0.979    15 H    0.965
                            16 H    0.963
    10   1 H    0.997 --     4 C    0.977
    11   1 H    0.993 --     4 C    0.977
    12   1 H    0.996 --     4 C    0.973
    13   1 H    0.998 --     6 C    0.961
    14   1 H    0.998 --     7 C    0.955
    15   1 H    0.997 --     9 C    0.965
    16   1 H    0.995 --     9 C    0.963
    17   1 H    0.997 --     9 C    0.979
 ---------------------------------------------------------------------------

Topologies differ in total number of bonds
Writing topology from bond orders to xtbtopo.mol

molecular dipole:
                 x           y           z       tot (Debye)
 q only:       -0.396      -0.993       0.569
   full:       -0.673      -0.789       0.324       2.762
molecular quadrupole (traceless):
                xx          xy          yy          xz          yz          zz
 q only:        6.232      -5.653      -8.483       1.529      -0.908       2.252
  q+dip:        6.516      -4.770      -9.183       2.376      -1.157       2.667
   full:        6.856      -4.624      -9.018       2.234      -1.820       2.161

           -------------------------------------------------
          |                Geometry Summary                 |
           -------------------------------------------------

      molecular mass/u    :      144.1948042
   center of mass at/Å    :        0.1920323       0.1112663       0.1127400
  moments of inertia/u·Å² :        0.2396495E+03   0.3349252E+03   0.5254583E+03
rotational constants/cm⁻¹ :        0.7034285E-01   0.5033253E-01   0.3208177E-01

 * 16 selected distances

     #   Z          #   Z                                           value/Å
     1   8 O        2  16 S                                       1.4591469
     2  16 S        3   7 N                                       1.7625429 (max)
     3   7 N        4   6 C                                       1.4436109
     3   7 N        5   7 N                                       1.3101649
     5   7 N        6   6 C                                       1.2827898
     6   6 C        7   6 C                                       1.4336800
     7   6 C        8   6 C                                       1.3367358
     8   6 C        9   6 C                                       1.4883443
     4   6 C       10   1 H                                       1.0910558
     4   6 C       11   1 H                                       1.0876199
     4   6 C       12   1 H                                       1.0926767
     6   6 C       13   1 H                                       1.0784228 (min)
     7   6 C       14   1 H                                       1.0828119
     9   6 C       15   1 H                                       1.0907149
     9   6 C       16   1 H                                       1.0898393
     9   6 C       17   1 H                                       1.0875040

 * 6 distinct bonds (by element types)

   Z      Z             #   av. dist./Å        max./Å        min./Å
   1 H    6 C           8     1.0875807     1.0926767     1.0784228
   6 C    6 C           3     1.4195867     1.4883443     1.3367358
   6 C    7 N           2     1.3632004     1.4436109     1.2827898
   7 N    7 N           1     1.3101649     1.3101649     1.3101649
   7 N   16 S           1     1.7625429     1.7625429     1.7625429
   8 O   16 S           1     1.4591469     1.4591469     1.4591469


optimized geometry written to: xtbopt.xyz


           -------------------------------------------------
          | TOTAL ENERGY              -27.889159613580 Eh   |
          | GRADIENT NORM               0.000542891349 Eh/α |
          | HOMO-LUMO GAP               2.813946349511 eV   |
           -------------------------------------------------
Note: The following floating-point exceptions are signalling: IEEE_DENORMAL
normal termination of xtb

------------------------------------------------------------------------
 * finished run on 2026/08/20 at 02:24:17.253     
------------------------------------------------------------------------
 total:
 * wall-time:     0 d,  0 h,  2 min, 14.515 sec
 *  cpu-time:     0 d,  0 h,  5 min, 21.459 sec
 * ratio c/w:     2.390 speedup
 SCF:
 * wall-time:     0 d,  0 h,  0 min,  5.383 sec
 *  cpu-time:     0 d,  0 h,  0 min, 12.184 sec
 * ratio c/w:     2.263 speedup
 ANC optimizer:
 * wall-time:     0 d,  0 h,  2 min,  8.596 sec
 *  cpu-time:     0 d,  0 h,  5 min,  8.154 sec
 * ratio c/w:     2.396 speedup

