17
 energy: -27.763293018539 gnorm: 0.000434786651 xtb: 6.7.1 (edcfbbe)
O            0.59009034785678        1.45676259242632        3.14645287320508
S            0.19574373115005        0.57607132053080        2.04147121449479
N            0.98469017316474       -0.76650717014828        0.34252639867207
C            2.36372179218860       -0.38374109025994        0.33081601870943
N            0.63116743651227       -1.85914483105892       -0.27058598266639
C           -0.42890362886518       -1.71649420195657       -1.00607225002980
C           -0.98132486243063       -0.40079215511580       -1.07560992483426
C           -0.35944601959133        0.46726776833587       -0.26512036748693
C           -0.25995454357653        1.44441682363467        0.67947898728355
H            2.92697935034160       -1.06196625722407        0.97587220430689
H            2.78529416457545       -0.42831642310528       -0.67756223590611
H            2.45796680283472        0.62790109580209        0.72581354168086
H           -0.85830621969530       -2.57351109317762       -1.49173555526838
H           -1.83987247464732       -0.19187153655049       -1.68593880628247
H           -3.74087044785340        2.33191197138893        0.10272067373171
H           -0.51279409958435        2.48530757392704        0.61573644229873
H           -3.14891138238361        1.83528166254942        0.19483126810847
