      -----------------------------------------------------------      
     |                   =====================                   |     
     |                           x T B                           |     
     |                   =====================                   |     
     |                         S. Grimme                         |     
     |          Mulliken Center for Theoretical Chemistry        |     
     |                    University of Bonn                     |     
      -----------------------------------------------------------      

   * xtb version 6.7.1 (edcfbbe) compiled by 'conda@3ef47c1a292c' on 2024-11-25

   xtb is free software: you can redistribute it and/or modify it under
   the terms of the GNU Lesser General Public License as published by
   the Free Software Foundation, either version 3 of the License, or
   (at your option) any later version.
   
   xtb is distributed in the hope that it will be useful,
   but WITHOUT ANY WARRANTY; without even the implied warranty of
   MERCHANTABILITY or FITNESS FOR A PARTICULAR PURPOSE.  See the
   GNU Lesser General Public License for more details.
   
   Cite this work as:
   * C. Bannwarth, E. Caldeweyher, S. Ehlert, A. Hansen, P. Pracht,
     J. Seibert, S. Spicher, S. Grimme, WIREs Comput. Mol. Sci., 2020, 11,
     e01493. DOI: 10.1002/wcms.1493
   
   for GFN2-xTB:
   * C. Bannwarth, S. Ehlert and S. Grimme., J. Chem. Theory Comput., 2019,
     15, 1652-1671. DOI: 10.1021/acs.jctc.8b01176
   for GFN1-xTB:
   * S. Grimme, C. Bannwarth, P. Shushkov, J. Chem. Theory Comput., 2017,
     13, 1989-2009. DOI: 10.1021/acs.jctc.7b00118
   for GFN0-xTB:
   * P. Pracht, E. Caldeweyher, S. Ehlert, S. Grimme, ChemRxiv, 2019, preprint.
     DOI: 10.26434/chemrxiv.8326202.v1
   for GFN-FF:
   * S. Spicher and S. Grimme, Angew. Chem. Int. Ed., 2020, 59, 15665-15673.
     DOI: 10.1002/anie.202004239
   
   for ALPB and GBSA implicit solvation:
   * S. Ehlert, M. Stahn, S. Spicher, S. Grimme, J. Chem. Theory Comput.,
     2021, 17, 4250-4261. DOI: 10.1021/acs.jctc.1c00471
   
   for ddCOSMO and CPCM-X implicit solvation:
   * M. Stahn, S. Ehlert, S. Grimme, J. Phys. Chem. A,
     2023, XX, XXXX-XXXX. DOI: 10.1021/acs.jpca.3c04382
   
   for DFT-D4:
   * E. Caldeweyher, C. Bannwarth and S. Grimme, J. Chem. Phys., 2017,
     147, 034112. DOI: 10.1063/1.4993215
   * E. Caldeweyher, S. Ehlert, A. Hansen, H. Neugebauer, S. Spicher,
     C. Bannwarth and S. Grimme, J. Chem. Phys., 2019, 150, 154122.
     DOI: 10.1063/1.5090222
   * E. Caldeweyher, J.-M. Mewes, S. Ehlert and S. Grimme, Phys. Chem. Chem. Phys.
     2020, 22, 8499-8512. DOI: 10.1039/D0CP00502A
   
   for sTDA-xTB:
   * S. Grimme and C. Bannwarth, J. Chem. Phys., 2016, 145, 054103.
     DOI: 10.1063/1.4959605
   
   in the mass-spec context:
   * V. Asgeirsson, C. Bauer and S. Grimme, Chem. Sci., 2017, 8, 4879.
     DOI: 10.1039/c7sc00601b
   * J. Koopman and S. Grimme, ACS Omega 2019, 4, 12, 15120-15133.
     DOI: 10.1021/acsomega.9b02011
   
   for metadynamics refer to:
   * S. Grimme, J. Chem. Theory Comput., 2019, 155, 2847-2862
     DOI: 10.1021/acs.jctc.9b00143
   
   for SPH calculations refer to:
   * S. Spicher and S. Grimme, J. Chem. Theory Comput., 2021, 17, 1701-1714
     DOI: 10.1021/acs.jctc.0c01306
   
   for ONIOM refer to:
   * C. Plett, A. Katbashev, S. Ehlert, S. Grimme, M. Bursch,
     Phys. Chem. Chem. Phys., 2023, 25, 17860-17868. DOI: 10.1039/D3CP02178E
   
   for DIPRO refer to:
   * J. Kohn, N. Gildemeister, S. Grimme, D. Fazzi, A. Hansen,
     J. Chem. Phys., 2023, just accepted.
   
   for PTB refer to:
   * S. Grimme, M. Mueller, A. Hansen, J. Chem. Phys., 2023, 158, 124111.
     DOI: 10.1063/5.0137838
   
   with help from (in alphabetical order)
   P. Atkinson, C. Bannwarth, F. Bohle, G. Brandenburg, E. Caldeweyher
   M. Checinski, S. Dohm, S. Ehlert, S. Ehrlich, I. Gerasimov, C. Hölzer
   A. Katbashev, J. Kohn, J. Koopman, C. Lavigne, S. Lehtola, F. März, M. Müller,
   F. Musil, H. Neugebauer, J. Pisarek, C. Plett, P. Pracht, F. Pultar,
   J. Seibert, P. Shushkov, S. Spicher, M. Stahn, M. Steiner, T. Strunk,
   J. Stückrath, T. Rose, and J. Unsleber
   
 * started run on 2026/08/20 at 02:32:31.453     
   ID    Z sym.   atoms
    1    8 O      1
    2   16 S      2
    3    7 N      3, 5
    4    6 C      4, 6-9
    5    1 H      10-17
constraining bond 3 8 to    1.9400000 Å, actual value:    1.9392018 Å
constraining bond 2 3 to    2.3000000 Å, actual value:    2.2997699 Å
constraining bond 2 8 to    2.3700000 Å, actual value:    2.3679124 Å

           -------------------------------------------------
          |                Calculation Setup                |
           -------------------------------------------------

          program call               : /h/399/yunhengzou/micromamba/envs/el-agente/bin/xtb pathway_A_TS_Initial_Guess.xyz --opt --gfn 2 -P 4 --chrg 0 --uhf 0 --input detailed_input.inp
          coordinate file            : pathway_A_TS_Initial_Guess.xyz
          omp threads                :                     4


           -------------------------------------------------
          |                 G F N 2 - x T B                 |
           -------------------------------------------------

        Reference                      10.1021/acs.jctc.8b01176
      * Hamiltonian:
        H0-scaling (s, p, d)           1.850000    2.230000    2.230000
        zeta-weighting                 0.500000
      * Dispersion:
        s8                             2.700000
        a1                             0.520000
        a2                             5.000000
        s9                             5.000000
      * Repulsion:
        kExp                           1.500000    1.000000
        rExp                           1.000000
      * Coulomb:
        alpha                          2.000000
        third order                    shell-resolved
        anisotropic                    true
        a3                             3.000000
        a5                             4.000000
        cn-shift                       1.200000
        cn-exp                         4.000000
        max-rad                        5.000000


          ...................................................
          :                      SETUP                      :
          :.................................................:
          :  # basis functions                  50          :
          :  # atomic orbitals                  49          :
          :  # shells                           27          :
          :  # electrons                        50          :
          :  max. iterations                   250          :
          :  Hamiltonian                  GFN2-xTB          :
          :  restarted?                      false          :
          :  GBSA solvation                  false          :
          :  PC potential                    false          :
          :  electronic temp.          300.0000000     K    :
          :  accuracy                    1.0000000          :
          :  -> integral cutoff          0.2500000E+02      :
          :  -> integral neglect         0.1000000E-07      :
          :  -> SCF convergence          0.1000000E-05 Eh   :
          :  -> wf. convergence          0.1000000E-03 e    :
          :  Broyden damping             0.4000000          :
          :  net charge                          0          :
          :  unpaired electrons                  0          :
          ...................................................

 iter      E             dE          RMSdq      gap      omega  full diag
   1    -27.8211778 -0.278212E+02  0.789E+00    0.23       0.0  T
   2    -27.8559955 -0.348177E-01  0.567E+00    0.10       1.0  T
   3    -27.8775465 -0.215510E-01  0.410E+00    0.24       1.0  T
   4    -27.8641696  0.133769E-01  0.263E+00    0.06       1.0  T
   5    -27.9149496 -0.507800E-01  0.149E+00    0.09       1.0  T
   6    -27.9131994  0.175029E-02  0.106E+00    0.07       1.0  T
   7    -27.9188148 -0.561548E-02  0.271E-01    0.03       1.0  T
   8    -27.9184270  0.387875E-03  0.241E-01    0.03       1.0  T
   9    -27.9188959 -0.468894E-03  0.145E-01    0.04       1.0  T
  10    -27.9189211 -0.252349E-04  0.460E-02    0.04       1.0  T
  11    -27.9189207  0.434581E-06  0.619E-02    0.03       1.0  T
  12    -27.9189251 -0.439918E-05  0.366E-02    0.04       1.0  T
  13    -27.9189270 -0.193275E-05  0.447E-03    0.03       5.4  T
  14    -27.9189270 -0.166796E-07  0.408E-03    0.03       5.9  T
  15    -27.9189270 -0.204905E-07  0.955E-04    0.03      25.4  T
  16    -27.9189270 -0.964793E-09  0.133E-04    0.03     181.8  T

   *** convergence criteria satisfied after 16 iterations ***

         #    Occupation            Energy/Eh            Energy/eV
      -------------------------------------------------------------
         1        2.0000           -0.7192209             -19.5710
       ...           ...                  ...                  ...
        19        2.0000           -0.4514694             -12.2851
        20        2.0000           -0.4428107             -12.0495
        21        2.0000           -0.4270427             -11.6204
        22        2.0000           -0.4070374             -11.0761
        23        2.0000           -0.3749844             -10.2038
        24        2.0000           -0.3431001              -9.3362
        25        1.3166           -0.2868574              -7.8058 (HOMO)
        26        0.6834           -0.2856116              -7.7719 (LUMO)
        27                         -0.2449123              -6.6644
        28                         -0.2264616              -6.1623
        29                         -0.1472524              -4.0069
        30                         -0.1260126              -3.4290
       ...                                ...                  ...
        49                          8.4968700             231.2116
      -------------------------------------------------------------
                  HL-Gap            0.0012458 Eh            0.0339 eV
             Fermi-level           -0.2862345 Eh           -7.7888 eV

 SCC (total)                   0 d,  0 h,  0 min,  7.703 sec
 SCC setup                      ...        0 min,  0.015 sec (  0.197%)
 Dispersion                     ...        0 min,  0.114 sec (  1.484%)
 classical contributions        ...        0 min,  0.050 sec (  0.653%)
 integral evaluation            ...        0 min,  0.067 sec (  0.873%)
 iterations                     ...        0 min,  6.949 sec ( 90.212%)
 molecular gradient             ...        0 min,  0.507 sec (  6.578%)
 printout                       ...        0 min,  0.000 sec (  0.002%)

         :::::::::::::::::::::::::::::::::::::::::::::::::::::
         ::                     SUMMARY                     ::
         :::::::::::::::::::::::::::::::::::::::::::::::::::::
         :: total energy             -26.252327545902 Eh    ::
         :: gradient norm              4.958021913552 Eh/a0 ::
         :: HOMO-LUMO gap              0.033900146071 eV    ::
         ::.................................................::
         :: SCC energy               -27.918862939991 Eh    ::
         :: -> isotropic ES            0.055938434692 Eh    ::
         :: -> anisotropic ES         -0.002235240903 Eh    ::
         :: -> anisotropic XC          0.013374337180 Eh    ::
         :: -> dispersion             -0.015050185773 Eh    ::
         :: repulsion energy           1.666517367279 Eh    ::
         :: add. restraining           0.000018026811 Eh    ::
         :: total charge              -0.000000000000 e     ::
         :::::::::::::::::::::::::::::::::::::::::::::::::::::

      ----------------------------------------------------------- 
     |                   =====================                   |
     |                        A N C O P T                        |
     |                   =====================                   |
     |               Approximate Normal Coordinate               |
     |                Rational Function Optimizer                |
      ----------------------------------------------------------- 
      ----------------------------------------------------------- 
     |                   =====================                   |
     |                        A N C O P T                        |
     |                   =====================                   |
     |               Approximate Normal Coordinate               |
     |                Rational Function Optimizer                |
      ----------------------------------------------------------- 

          ...................................................
          :                      SETUP                      :
          :.................................................:
          :   optimization level            normal          :
          :   max. optcycles                   200          :
          :   ANC micro-cycles                  20          :
          :   degrees of freedom                45          :
          :.................................................:
          :   RF solver                   davidson          :
          :   write xtbopt.log                true          :
          :   linear?                        false          :
          :   energy convergence         0.5000000E-05 Eh   :
          :   grad. convergence          0.1000000E-02 Eh/α :
          :   maxmium RF displ.          1.0000000          :
          :   Hlow (freq-cutoff)         0.1000000E-01      :
          :   Hmax (freq-cutoff)         5.0000000          :
          :   S6 in model hess.         20.0000000          :
          ...................................................

generating ANC from exact Hessian ...
Using Lindh-Hessian (1995)
 Shifting diagonal of input Hessian by    7.0221875434421308E-003
 Lowest  eigenvalues of input Hessian
    0.000000    0.000000    0.000000    0.000000    0.000000    0.000000
    0.010000    0.014777    0.019782    0.022278    0.025739    0.029335
    0.037775    0.045098    0.048890    0.054317    0.076116    0.078123
 Highest eigenvalues
    3.909095    3.947393    4.345579    5.761833    6.773653   16.726189


........................................................................
.............................. CYCLE    1 ..............................
........................................................................

 iter      E             dE          RMSdq      gap      omega  full diag
   1    -27.9189270 -0.279189E+02  0.162E-04    0.03       0.0  T
   2    -27.9189270  0.297984E-09  0.371E-04    0.03      65.4  T
   3    -27.9189270 -0.343984E-09  0.383E-05    0.03     633.0  T
     SCC iter.                  ...        0 min,  2.326 sec
     gradient                   ...        0 min,  0.481 sec
 * total energy  :   -26.2523275 Eh     change       -0.5594458E-10 Eh
   gradient norm :     4.9580216 Eh/α   predicted     0.0000000E+00 (-100.00%)
   displ. norm   :     0.6666741 α      lambda       -0.3278354E+01
   maximum displ.:     0.4382716 α      in ANC's #40, #44, #41, ...

........................................................................
.............................. CYCLE    2 ..............................
........................................................................

 iter      E             dE          RMSdq      gap      omega  full diag
   1    -27.8613533 -0.278614E+02  0.273E+00    0.42       0.0  T
   2    -27.8514644  0.988887E-02  0.232E+00    0.00       1.0  T
   3    -27.9101691 -0.587046E-01  0.174E+00    0.24       1.0  T
   4    -27.9234685 -0.132994E-01  0.122E+00    0.18       1.0  T
   5    -27.9221502  0.131825E-02  0.868E-01    0.16       1.0  T
   6    -27.9283969 -0.624670E-02  0.370E-01    0.08       1.0  T
   7    -27.9284272 -0.302416E-04  0.231E-01    0.08       1.0  T
   8    -27.9285623 -0.135133E-03  0.122E-01    0.10       1.0  T
   9    -27.9285889 -0.266146E-04  0.623E-02    0.10       1.0  T
  10    -27.9285949 -0.595748E-05  0.209E-02    0.09       1.2  T
  11    -27.9285951 -0.193293E-06  0.134E-02    0.09       1.8  T
  12    -27.9285954 -0.369398E-06  0.421E-03    0.09       5.8  T
  13    -27.9285954 -0.204128E-07  0.196E-03    0.09      12.4  T
  14    -27.9285954 -0.334201E-08  0.533E-04    0.09      45.5  T
  15    -27.9285954 -0.585075E-09  0.123E-04    0.09     197.5  T
     SCC iter.                  ...        0 min,  6.830 sec
     gradient                   ...        0 min,  0.601 sec
 * total energy  :   -27.4119920 Eh     change       -0.1159664E+01 Eh
   gradient norm :     0.5386447 Eh/α   predicted    -0.2367717E+01 ( 104.17%)
   displ. norm   :     0.3787191 α      lambda       -0.1086568E+00
   maximum displ.:     0.1907779 α      in ANC's #26, #13, #6, ...

........................................................................
.............................. CYCLE    3 ..............................
........................................................................

 iter      E             dE          RMSdq      gap      omega  full diag
   1    -27.9042051 -0.279042E+02  0.123E+00    0.28       0.0  T
   2    -27.9031285  0.107661E-02  0.626E-01    0.15       1.0  T
   3    -27.9038623 -0.733823E-03  0.461E-01    0.20       1.0  T
   4    -27.9070662 -0.320396E-02  0.191E-01    0.16       1.0  T
   5    -27.9075397 -0.473469E-03  0.715E-02    0.16       1.0  T
   6    -27.9075592 -0.195229E-04  0.430E-02    0.16       1.0  T
   7    -27.9075625 -0.326835E-05  0.161E-02    0.16       1.5  T
   8    -27.9075628 -0.333777E-06  0.435E-03    0.16       5.6  T
   9    -27.9075628  0.131498E-07  0.311E-03    0.16       7.8  T
  10    -27.9075629 -0.601869E-07  0.667E-04    0.16      36.3  T
  11    -27.9075629  0.297728E-09  0.380E-04    0.16      63.8  T
     SCC iter.                  ...        0 min, 10.309 sec
     gradient                   ...        0 min,  0.340 sec
 * total energy  :   -27.4871257 Eh     change       -0.7513364E-01 Eh
   gradient norm :     0.3483529 Eh/α   predicted    -0.6212062E-01 ( -17.32%)
   displ. norm   :     0.3804164 α      lambda       -0.6771500E-01
   maximum displ.:     0.1656381 α      in ANC's #10, #8, #21, ...

........................................................................
.............................. CYCLE    4 ..............................
........................................................................

 iter      E             dE          RMSdq      gap      omega  full diag
   1    -27.8920913 -0.278921E+02  0.663E-01    0.48       0.0  T
   2    -27.8924569 -0.365573E-03  0.636E-01    0.34       1.0  T
   3    -27.8958682 -0.341132E-02  0.255E-01    0.39       1.0  T
   4    -27.8951435  0.724716E-03  0.265E-01    0.36       1.0  T
   5    -27.8962299 -0.108639E-02  0.688E-02    0.37       1.0  T
   6    -27.8962419 -0.119759E-04  0.228E-02    0.37       1.1  T
   7    -27.8962423 -0.412129E-06  0.490E-03    0.37       5.0  T
   8    -27.8962424 -0.840333E-07  0.252E-03    0.37       9.6  T
   9    -27.8962424 -0.558490E-08  0.998E-04    0.37      24.3  T
  10    -27.8962424 -0.304265E-08  0.346E-04    0.37      70.1  T
     SCC iter.                  ...        0 min,  7.771 sec
     gradient                   ...        0 min,  0.386 sec
 * total energy  :   -27.5386678 Eh     change       -0.5154217E-01 Eh
   gradient norm :     0.2141134 Eh/α   predicted    -0.3875721E-01 ( -24.80%)
   displ. norm   :     0.4111991 α      lambda       -0.4856452E-01
   maximum displ.:     0.2319416 α      in ANC's #8, #10, #30, ...

........................................................................
.............................. CYCLE    5 ..............................
........................................................................

 iter      E             dE          RMSdq      gap      omega  full diag
   1    -27.8860082 -0.278860E+02  0.653E-01    0.63       0.0  T
   2    -27.8879663 -0.195803E-02  0.534E-01    0.48       1.0  T
   3    -27.8898404 -0.187410E-02  0.245E-01    0.53       1.0  T
   4    -27.8892220  0.618377E-03  0.241E-01    0.50       1.0  T
   5    -27.8901831 -0.961076E-03  0.380E-02    0.51       1.0  T
   6    -27.8901825  0.547585E-06  0.213E-02    0.52       1.1  T
   7    -27.8901847 -0.220142E-05  0.782E-03    0.52       3.1  T
   8    -27.8901852 -0.528946E-06  0.386E-03    0.52       6.3  T
   9    -27.8901853 -0.910917E-07  0.184E-03    0.52      13.1  T
  10    -27.8901853 -0.104405E-07  0.369E-04    0.52      65.8  T
  11    -27.8901853 -0.224290E-09  0.157E-04    0.52     154.8  T
     SCC iter.                  ...        0 min,  4.495 sec
     gradient                   ...        0 min,  0.147 sec
 * total energy  :   -27.5737268 Eh     change       -0.3505896E-01 Eh
   gradient norm :     0.1177290 Eh/α   predicted    -0.2838803E-01 ( -19.03%)
   displ. norm   :     0.3276943 α      lambda       -0.2110348E-01
   maximum displ.:     0.1281963 α      in ANC's #8, #2, #1, ...

........................................................................
.............................. CYCLE    6 ..............................
........................................................................

 iter      E             dE          RMSdq      gap      omega  full diag
   1    -27.8891274 -0.278891E+02  0.463E-01    0.52       0.0  T
   2    -27.8900860 -0.958523E-03  0.310E-01    0.38       1.0  T
   3    -27.8904456 -0.359632E-03  0.151E-01    0.43       1.0  T
   4    -27.8901680  0.277613E-03  0.139E-01    0.41       1.0  T
   5    -27.8905046 -0.336599E-03  0.417E-02    0.41       1.0  T
   6    -27.8905163 -0.117466E-04  0.187E-02    0.42       1.3  T
   7    -27.8905200 -0.370896E-05  0.677E-03    0.42       3.6  T
   8    -27.8905202 -0.144555E-06  0.312E-03    0.41       7.8  T
   9    -27.8905202 -0.557829E-07  0.171E-03    0.42      14.2  T
  10    -27.8905202 -0.827208E-08  0.341E-04    0.42      71.2  T
  11    -27.8905202 -0.199737E-09  0.171E-04    0.42     142.0  T
     SCC iter.                  ...        0 min,  8.178 sec
     gradient                   ...        0 min,  0.443 sec
 * total energy  :   -27.5883629 Eh     change       -0.1463607E-01 Eh
   gradient norm :     0.0650747 Eh/α   predicted    -0.1168483E-01 ( -20.16%)
   displ. norm   :     0.3554618 α      lambda       -0.9456862E-02
   maximum displ.:     0.1939674 α      in ANC's #1, #2, #4, ...

........................................................................
.............................. CYCLE    7 ..............................
........................................................................

 iter      E             dE          RMSdq      gap      omega  full diag
   1    -27.8968165 -0.278968E+02  0.442E-01    0.24       0.0  T
   2    -27.8972009 -0.384421E-03  0.209E-01    0.33       1.0  T
   3    -27.8972664 -0.654768E-04  0.127E-01    0.28       1.0  T
   4    -27.8971959  0.704983E-04  0.945E-02    0.29       1.0  T
   5    -27.8972736 -0.776734E-04  0.460E-02    0.30       1.0  T
   6    -27.8973126 -0.390311E-04  0.964E-03    0.29       2.5  T
   7    -27.8973128 -0.234773E-06  0.432E-03    0.29       5.6  T
   8    -27.8973129 -0.750383E-07  0.189E-03    0.29      12.9  T
   9    -27.8973129 -0.297344E-07  0.105E-03    0.29      23.1  T
  10    -27.8973129 -0.509507E-08  0.395E-04    0.29      61.5  T
  11    -27.8973129 -0.530697E-09  0.128E-04    0.29     188.9  T
     SCC iter.                  ...        0 min,  7.853 sec
     gradient                   ...        0 min,  0.276 sec
 * total energy  :   -27.5954044 Eh     change       -0.7041553E-02 Eh
   gradient norm :     0.0510632 Eh/α   predicted    -0.5325872E-02 ( -24.37%)
   displ. norm   :     0.4038023 α      lambda       -0.6329818E-02
   maximum displ.:     0.2606430 α      in ANC's #2, #1, #4, ...

........................................................................
.............................. CYCLE    8 ..............................
........................................................................

 iter      E             dE          RMSdq      gap      omega  full diag
   1    -27.7352655 -0.277353E+02  0.448E+00    0.14       0.0  T
   2    -27.8141369 -0.788715E-01  0.342E+00    1.52       1.0  T
   3    -27.8863341 -0.721971E-01  0.192E+00    0.98       1.0  T
   4    -27.8892755 -0.294139E-02  0.141E+00    0.83       1.0  T
   5    -27.8957013 -0.642583E-02  0.118E+00    0.67       1.0  T
   6    -27.8992647 -0.356343E-02  0.800E-01    0.45       1.0  T
   7    -27.9005310 -0.126623E-02  0.607E-01    0.36       1.0  T
   8    -27.9022052 -0.167426E-02  0.305E-01    0.25       1.0  T
   9    -27.9016593  0.545963E-03  0.407E-01    0.15       1.0  T
  10    -27.9014198  0.239472E-03  0.520E-01    0.28       1.0  T
  11    -27.9025105 -0.109075E-02  0.232E-01    0.22       1.0  T
  12    -27.9027822 -0.271670E-03  0.109E-01    0.20       1.0  T
  13    -27.9028571 -0.749361E-04  0.257E-02    0.19       1.0  T
  14    -27.9028582 -0.107450E-05  0.246E-02    0.18       1.0  T
  15    -27.9028612 -0.294073E-05  0.112E-02    0.19       2.2  T
  16    -27.9028619 -0.759815E-06  0.653E-04    0.19      37.2  T
  17    -27.9028619 -0.171730E-08  0.173E-04    0.19     140.1  T
     SCC iter.                  ...        0 min,  7.013 sec
     gradient                   ...        0 min,  0.424 sec
 * total energy  :   -27.6001043 Eh     change       -0.4699839E-02 Eh
   gradient norm :     0.0449718 Eh/α   predicted    -0.3680975E-02 ( -21.68%)
   displ. norm   :     0.6072924 α      lambda       -0.5815738E-02
   maximum displ.:     0.4252139 α      in ANC's #1, #2, #4, ...

........................................................................
.............................. CYCLE    9 ..............................
........................................................................

 iter      E             dE          RMSdq      gap      omega  full diag
   1    -27.7079255 -0.277079E+02  0.503E+00    0.32       0.0  T
   2    -27.7618664 -0.539409E-01  0.405E+00    1.81       1.0  T
   3    -27.8767126 -0.114846E+00  0.237E+00    0.95       1.0  T
   4    -27.8808116 -0.409898E-02  0.178E+00    0.75       1.0  T
   5    -27.8928434 -0.120319E-01  0.143E+00    0.52       1.0  T
   6    -27.9015648 -0.872138E-02  0.816E-01    0.26       1.0  T
   7    -27.9005584  0.100645E-02  0.874E-01    0.28       1.0  T
   8    -27.7860324  0.114526E+00  0.393E+00    0.14       1.0  T
   9    -27.9042836 -0.118251E+00  0.550E-01    0.13       1.0  T
  10    -27.9057870 -0.150343E-02  0.185E-01    0.16       1.0  T
  11    -27.9051459  0.641130E-03  0.341E-01    0.17       1.0  T
  12    -27.9052562 -0.110309E-03  0.311E-01    0.17       1.0  T
  13    -27.9058831 -0.626863E-03  0.143E-01    0.16       1.0  T
  14    -27.9059747 -0.916467E-04  0.942E-02    0.15       1.0  T
  15    -27.9060296 -0.548308E-04  0.448E-02    0.15       1.0  T
  16    -27.9060399 -0.103435E-04  0.121E-02    0.14       2.0  T
  17    -27.9060403 -0.434558E-06  0.138E-03    0.14      17.6  T
  18    -27.9060403  0.808270E-07  0.338E-03    0.14       7.2  T
  19    -27.9060404 -0.907066E-07  0.242E-04    0.14     100.2  T
  20    -27.9060404  0.323646E-08  0.679E-04    0.14      35.7  T
     SCC iter.                  ...        0 min,  5.174 sec
     gradient                   ...        0 min,  0.292 sec
 * total energy  :   -27.6036446 Eh     change       -0.3540361E-02 Eh
   gradient norm :     0.1302306 Eh/α   predicted    -0.3980356E-02 (  12.43%)
   displ. norm   :     0.5656399 α      lambda       -0.9243651E-02
   maximum displ.:     0.2920349 α      in ANC's #2, #1, #4, ...

........................................................................
.............................. CYCLE   10 ..............................
........................................................................

 iter      E             dE          RMSdq      gap      omega  full diag
   1    -27.7466770 -0.277467E+02  0.484E+00    0.73       0.0  T
   2    -27.7275333  0.191437E-01  0.430E+00    1.84       1.0  T
   3    -27.8613307 -0.133797E+00  0.256E+00    0.60       1.0  T
   4    -27.8801244 -0.187936E-01  0.168E+00    0.33       1.0  T
   5    -27.9098564 -0.297321E-01  0.810E-01    0.16       1.0  T
   6    -27.9097465  0.109930E-03  0.696E-01    0.17       1.0  T
   7    -27.8067968  0.102950E+00  0.367E+00    0.22       1.0  T
   8    -27.9098401 -0.103043E+00  0.328E-01    0.13       1.0  T
   9    -27.9105173 -0.677176E-03  0.113E-01    0.13       1.0  T
  10    -27.9101406  0.376736E-03  0.235E-01    0.14       1.0  T
  11    -27.9104847 -0.344076E-03  0.125E-01    0.14       1.0  T
  12    -27.9106194 -0.134722E-03  0.233E-02    0.13       1.0  T
  13    -27.9106195 -0.748789E-07  0.215E-02    0.13       1.1  T
  14    -27.9106213 -0.187137E-05  0.604E-03    0.13       4.0  T
  15    -27.9106215 -0.164077E-06  0.187E-03    0.13      13.0  T
  16    -27.9106214  0.756996E-07  0.325E-03    0.13       7.5  T
  17    -27.9106215 -0.787395E-07  0.241E-04    0.13     100.7  T
  18    -27.9106215 -0.118529E-09  0.213E-04    0.13     113.7  T
     SCC iter.                  ...        0 min,  6.887 sec
     gradient                   ...        0 min,  0.290 sec
 * total energy  :   -27.6106902 Eh     change       -0.7045567E-02 Eh
   gradient norm :     0.0944123 Eh/α   predicted    -0.6100570E-02 ( -13.41%)
   displ. norm   :     0.6693738 α      lambda       -0.1524311E-01
   maximum displ.:     0.3889027 α      in ANC's #1, #30, #2, ...

........................................................................
.............................. CYCLE   11 ..............................
........................................................................

 iter      E             dE          RMSdq      gap      omega  full diag
   1    -27.8047551 -0.278048E+02  0.423E+00    1.13       0.0  T
   2    -27.6763618  0.128393E+00  0.478E+00    1.54       1.0  T
   3    -27.9079873 -0.231626E+00  0.160E+00    0.19       1.0  T
   4    -27.9038113  0.417600E-02  0.179E+00    0.21       1.0  T
   5    -27.9256564 -0.218451E-01  0.774E-01    0.17       1.0  T
   6    -27.8750175  0.506390E-01  0.260E+00    0.24       1.0  T
   7    -27.9162074 -0.411900E-01  0.114E+00    0.15       1.0  T
   8    -27.9283207 -0.121132E-01  0.325E-01    0.15       1.0  T
   9    -27.9286626 -0.341923E-03  0.261E-01    0.15       1.0  T
  10    -27.9288610 -0.198450E-03  0.225E-01    0.15       1.0  T
  11    -27.9292974 -0.436315E-03  0.807E-02    0.15       1.0  T
  12    -27.9293593 -0.619696E-04  0.125E-02    0.15       1.9  T
  13    -27.9293581  0.124333E-05  0.166E-02    0.15       1.5  T
  14    -27.9293605 -0.240733E-05  0.622E-03    0.15       3.9  T
  15    -27.9293608 -0.291113E-06  0.308E-03    0.15       7.9  T
  16    -27.9293609 -0.867133E-07  0.944E-04    0.15      25.7  T
  17    -27.9293609 -0.139438E-08  0.880E-04    0.15      27.5  T
     SCC iter.                  ...        0 min,  4.900 sec
     gradient                   ...        0 min,  0.315 sec
 * total energy  :   -27.6208650 Eh     change       -0.1017476E-01 Eh
   gradient norm :     0.1836492 Eh/α   predicted    -0.1103644E-01 (   8.47%)
   displ. norm   :     0.7111137 α      lambda       -0.1462311E-01
   maximum displ.:     0.5479404 α      in ANC's #1, #30, #2, ...

........................................................................
.............................. CYCLE   12 ..............................
........................................................................

 iter      E             dE          RMSdq      gap      omega  full diag
   1    -27.8599132 -0.278599E+02  0.310E+00    0.55       0.0  T
   2    -27.6367529  0.223160E+00  0.505E+00    1.50       1.0  T
   3    -27.8233680 -0.186615E+00  0.302E+00    0.29       1.0  T
   4    -27.8957880 -0.724200E-01  0.226E+00    0.32       1.0  T
   5    -27.9202739 -0.244858E-01  0.134E+00    0.22       1.0  T
   6    -27.9344648 -0.141909E-01  0.572E-01    0.19       1.0  T
   7    -27.9352484 -0.783622E-03  0.440E-01    0.18       1.0  T
   8    -27.9194510  0.157974E-01  0.122E+00    0.17       1.0  T
   9    -27.9371008 -0.176498E-01  0.916E-02    0.17       1.0  T
  10    -27.9371708 -0.700426E-04  0.208E-02    0.18       1.2  T
  11    -27.9371015  0.692988E-04  0.800E-02    0.18       1.0  T
  12    -27.9371652 -0.637288E-04  0.245E-02    0.17       1.0  T
  13    -27.9371671 -0.183943E-05  0.201E-02    0.18       1.2  T
  14    -27.9371713 -0.420768E-05  0.407E-03    0.17       6.0  T
  15    -27.9371714 -0.139366E-06  0.186E-03    0.17      13.0  T
  16    -27.9371715 -0.278732E-07  0.994E-04    0.17      24.4  T
  17    -27.9371715 -0.981812E-08  0.293E-04    0.17      82.7  T
     SCC iter.                  ...        0 min,  3.316 sec
     gradient                   ...        0 min,  0.348 sec
 * total energy  :   -27.6334718 Eh     change       -0.1260688E-01 Eh
   gradient norm :     0.1575236 Eh/α   predicted    -0.1100883E-01 ( -12.68%)
   displ. norm   :     0.5900111 α      lambda       -0.2412371E-01
   maximum displ.:     0.3460433 α      in ANC's #1, #7, #6, ...

........................................................................
.............................. CYCLE   13 ..............................
........................................................................

 iter      E             dE          RMSdq      gap      omega  full diag
   1    -27.8931829 -0.278932E+02  0.256E+00    0.29       0.0  T
   2    -27.6217539  0.271429E+00  0.523E+00    1.58       1.0  T
   3    -27.7335436 -0.111790E+00  0.399E+00    0.41       1.0  T
   4    -27.9448216 -0.211278E+00  0.121E+00    0.16       1.0  T
   5    -27.9275673  0.172543E-01  0.178E+00    0.19       1.0  T
   6    -27.9326804 -0.511308E-02  0.142E+00    0.13       1.0  T
   7    -27.8975506  0.351299E-01  0.209E+00    0.14       1.0  T
   8    -27.9439323 -0.463817E-01  0.119E+00    0.15       1.0  T
   9    -27.9581394 -0.142071E-01  0.189E-01    0.13       1.0  T
  10    -27.9583873 -0.247913E-03  0.101E-01    0.12       1.0  T
  11    -27.9584387 -0.514643E-04  0.590E-02    0.12       1.0  T
  12    -27.9583617  0.770806E-04  0.987E-02    0.12       1.0  T
  13    -27.9584790 -0.117350E-03  0.790E-03    0.12       3.1  T
  14    -27.9584787  0.341752E-06  0.958E-03    0.12       2.5  T
  15    -27.9584798 -0.108463E-05  0.120E-03    0.12      20.1  T
  16    -27.9584798 -0.166027E-07  0.354E-04    0.12      68.5  T
  17    -27.9584798  0.271895E-08  0.557E-04    0.12      43.6  T
     SCC iter.                  ...        0 min,  5.251 sec
     gradient                   ...        0 min,  0.260 sec
 * total energy  :   -27.6444035 Eh     change       -0.1093161E-01 Eh
   gradient norm :     0.1841661 Eh/α   predicted    -0.1626077E-01 (  48.75%)
   displ. norm   :     0.4864183 α      lambda       -0.1822668E-01
   maximum displ.:     0.2095181 α      in ANC's #1, #2, #6, ...

........................................................................
.............................. CYCLE   14 ..............................
........................................................................

 iter      E             dE          RMSdq      gap      omega  full diag
   1    -27.9164065 -0.279164E+02  0.193E+00    0.19       0.0  T
   2    -27.6066303  0.309776E+00  0.501E+00    1.28       1.0  T
   3    -27.7469107 -0.140280E+00  0.362E+00    0.22       1.0  T
   4    -27.8907593 -0.143849E+00  0.242E+00    0.32       1.0  T
   5    -27.9009717 -0.102124E-01  0.216E+00    0.26       1.0  T
   6    -27.9470407 -0.460690E-01  0.450E-01    0.13       1.0  T
   7    -27.9477052 -0.664479E-03  0.355E-01    0.13       1.0  T
   8    -27.9459429  0.176231E-02  0.485E-01    0.12       1.0  T
   9    -27.9374492  0.849367E-02  0.987E-01    0.14       1.0  T
  10    -27.9482203 -0.107711E-01  0.103E-01    0.12       1.0  T
  11    -27.9483373 -0.116961E-03  0.241E-02    0.12       1.0  T
  12    -27.9482842  0.530664E-04  0.676E-02    0.12       1.0  T
  13    -27.9482973 -0.131153E-04  0.597E-02    0.12       1.0  T
  14    -27.9483410 -0.437186E-04  0.959E-03    0.12       2.5  T
  15    -27.9483421 -0.110695E-05  0.191E-03    0.12      12.7  T
  16    -27.9483422 -0.437243E-07  0.456E-04    0.12      53.1  T
  17    -27.9483421  0.297064E-07  0.158E-03    0.12      15.4  T
  18    -27.9483422 -0.222134E-07  0.845E-04    0.12      28.7  T
     SCC iter.                  ...        0 min,  5.324 sec
     gradient                   ...        0 min,  0.310 sec
 * total energy  :   -27.6538368 Eh     change       -0.9433372E-02 Eh
   gradient norm :     0.1461996 Eh/α   predicted    -0.1126954E-01 (  19.46%)
   displ. norm   :     0.4891849 α      lambda       -0.2070918E-01
   maximum displ.:     0.2483532 α      in ANC's #8, #5, #1, ...

........................................................................
.............................. CYCLE   15 ..............................
........................................................................

 iter      E             dE          RMSdq      gap      omega  full diag
   1    -27.9280265 -0.279280E+02  0.202E+00    0.21       0.0  T
   2    -27.5903349  0.337692E+00  0.526E+00    1.37       1.0  T
   3    -27.7092121 -0.118877E+00  0.401E+00    0.24       1.0  T
   4    -27.9073179 -0.198106E+00  0.236E+00    0.33       1.0  T
   5    -27.9217439 -0.144260E-01  0.206E+00    0.25       1.0  T
   6    -27.9418285 -0.200846E-01  0.150E+00    0.18       1.0  T
   7    -27.9600706 -0.182421E-01  0.704E-01    0.14       1.0  T
   8    -27.9653463 -0.527572E-02  0.349E-01    0.12       1.0  T
   9    -27.8947006  0.706458E-01  0.217E+00    0.13       1.0  T
  10    -27.9646810 -0.699804E-01  0.279E-01    0.12       1.0  T
  11    -27.9652415 -0.560497E-03  0.170E-01    0.12       1.0  T
  12    -27.9652491 -0.766696E-05  0.165E-01    0.12       1.0  T
  13    -27.9655946 -0.345429E-03  0.161E-02    0.12       1.5  T
  14    -27.9655838  0.107688E-04  0.327E-02    0.12       1.0  T
  15    -27.9655976 -0.138169E-04  0.165E-03    0.12      14.7  T
  16    -27.9655976 -0.709200E-08  0.146E-03    0.12      16.6  T
  17    -27.9655975  0.135052E-06  0.354E-03    0.12       6.9  T
  18    -27.9655976 -0.156640E-06  0.667E-04    0.12      36.3  T
  19    -27.9655976 -0.213572E-08  0.525E-04    0.12      46.2  T
     SCC iter.                  ...        0 min,  4.759 sec
     gradient                   ...        0 min,  0.309 sec
 * total energy  :   -27.6613974 Eh     change       -0.7560616E-02 Eh
   gradient norm :     0.1435047 Eh/α   predicted    -0.1283248E-01 (  69.73%)
   displ. norm   :     0.2537602 α      lambda       -0.9690116E-02
   maximum displ.:     0.1347271 α      in ANC's #2, #7, #5, ...

........................................................................
.............................. CYCLE   16 ..............................
........................................................................

 iter      E             dE          RMSdq      gap      omega  full diag
   1    -27.9542106 -0.279542E+02  0.124E+00    0.13       0.0  T
   2    -27.5996670  0.354544E+00  0.495E+00    1.00       1.0  T
   3    -27.7605691 -0.160902E+00  0.357E+00    0.16       1.0  T
   4    -27.9348765 -0.174307E+00  0.188E+00    0.19       1.0  T
   5    -27.9124101  0.224664E-01  0.230E+00    0.29       1.0  T
   6    -27.9114452  0.964908E-03  0.232E+00    0.31       1.0  T
   7    -27.9284283 -0.169831E-01  0.199E+00    0.21       1.0  T
   8    -27.9441777 -0.157494E-01  0.160E+00    0.16       1.0  T
   9    -27.9625686 -0.183909E-01  0.880E-01    0.12       1.0  T
  10    -27.9617102  0.858382E-03  0.917E-01    0.12       1.0  T
  11    -27.9714120 -0.970184E-02  0.102E-01    0.10       1.0  T
  12    -27.9693989  0.201318E-02  0.393E-01    0.09       1.0  T
  13    -27.9715089 -0.211005E-02  0.498E-02    0.09       1.0  T
  14    -27.9715418 -0.329292E-04  0.200E-03    0.09      12.1  T
  15    -27.9715363  0.559333E-05  0.206E-02    0.09       1.2  T
  16    -27.9715417 -0.547449E-05  0.332E-03    0.09       7.3  T
  17    -27.9715418 -0.104235E-06  0.177E-03    0.09      13.7  T
  18    -27.9715419 -0.405367E-07  0.297E-04    0.09      81.5  T
  19    -27.9715419  0.455708E-08  0.657E-04    0.09      36.9  T
     SCC iter.                  ...        0 min,  5.085 sec
     gradient                   ...        0 min,  0.062 sec
 * total energy  :   -27.6686037 Eh     change       -0.7206235E-02 Eh
   gradient norm :     0.0685904 Eh/α   predicted    -0.5157053E-02 ( -28.44%)
   displ. norm   :     0.3942182 α      lambda       -0.9710578E-02
   maximum displ.:     0.2441399 α      in ANC's #1, #7, #30, ...

........................................................................
.............................. CYCLE   17 ..............................
........................................................................

 iter      E             dE          RMSdq      gap      omega  full diag
   1    -27.9522883 -0.279523E+02  0.157E+00    0.15       0.0  T
   2    -27.5789016  0.373387E+00  0.518E+00    1.29       1.0  T
   3    -27.6630298 -0.841281E-01  0.428E+00    0.24       1.0  T
   4    -27.9695438 -0.306514E+00  0.964E-01    0.12       1.0  T
   5    -27.9383035  0.312403E-01  0.190E+00    0.19       1.0  T
   6    -27.9678416 -0.295381E-01  0.102E+00    0.12       1.0  T
   7    -27.9632447  0.459691E-02  0.107E+00    0.08       1.0  T
   8    -27.9640702 -0.825473E-03  0.104E+00    0.08       1.0  T
   9    -27.9798620 -0.157918E-01  0.171E-01    0.09       1.0  T
  10    -27.9802388 -0.376826E-03  0.390E-02    0.09       1.0  T
  11    -27.9800681  0.170712E-03  0.117E-01    0.09       1.0  T
  12    -27.9802277 -0.159603E-03  0.464E-02    0.09       1.0  T
  13    -27.9802465 -0.187984E-04  0.282E-02    0.09       1.0  T
  14    -27.9802568 -0.103309E-04  0.661E-03    0.09       3.7  T
  15    -27.9802572 -0.408510E-06  0.377E-03    0.09       6.4  T
  16    -27.9802574 -0.190238E-06  0.600E-04    0.09      40.4  T
  17    -27.9802574  0.292855E-08  0.761E-04    0.09      31.9  T
     SCC iter.                  ...        0 min,  6.380 sec
     gradient                   ...        0 min,  0.308 sec
 * total energy  :   -27.6743792 Eh     change       -0.5775512E-02 Eh
   gradient norm :     0.0999486 Eh/α   predicted    -0.5609837E-02 (  -2.87%)
   displ. norm   :     0.4630056 α      lambda       -0.6223969E-02
   maximum displ.:     0.3263822 α      in ANC's #2, #1, #4, ...

........................................................................
.............................. CYCLE   18 ..............................
........................................................................

 iter      E             dE          RMSdq      gap      omega  full diag
   1    -27.9310855 -0.279311E+02  0.190E+00    0.06       0.0  T
   2    -27.8837519  0.473336E-01  0.338E+00    1.85       1.0  T
   3    -27.9154093 -0.316574E-01  0.264E+00    0.69       1.0  T
   4    -27.9262443 -0.108350E-01  0.228E+00    0.25       1.0  T
   5    -27.6266953  0.299549E+00  0.453E+00    0.44       1.0  T
   6    -27.6257019  0.993429E-03  0.460E+00    0.51       1.0  T
   7    -27.6635000 -0.377981E-01  0.427E+00    0.23       1.0  T
   8    -27.9782263 -0.314726E+00  0.915E-01    0.10       1.0  T
   9    -27.8611683  0.117058E+00  0.275E+00    0.09       1.0  T
  10    -27.9468863 -0.857181E-01  0.162E+00    0.06       1.0  T
  11    -27.9426066  0.427971E-02  0.169E+00    0.06       1.0  T
  12    -27.9876948 -0.450882E-01  0.259E-01    0.07       1.0  T
  13    -27.9885691 -0.874296E-03  0.618E-02    0.07       1.0  T
  14    -27.9885883 -0.192126E-04  0.475E-02    0.07       1.0  T
  15    -27.9885248  0.634511E-04  0.818E-02    0.07       1.0  T
  16    -27.9886202 -0.953509E-04  0.292E-03    0.07       8.3  T
  17    -27.9886200  0.206452E-06  0.473E-03    0.07       5.1  T
  18    -27.9886201 -0.147503E-06  0.339E-03    0.07       7.2  T
  19    -27.9886201  0.656551E-07  0.401E-03    0.07       6.0  T
  20    -27.9886203 -0.228348E-06  0.142E-05    0.07    1702.1  T
  21    -27.9886203  0.579021E-10  0.632E-05    0.07     383.7  T
     SCC iter.                  ...        0 min,  7.813 sec
     gradient                   ...        0 min,  0.295 sec
 * total energy  :   -27.6770829 Eh     change       -0.2703760E-02 Eh
   gradient norm :     0.0748537 Eh/α   predicted    -0.3779109E-02 (  39.77%)
   displ. norm   :     0.3621145 α      lambda       -0.3576424E-02
   maximum displ.:     0.2654346 α      in ANC's #1, #30, #4, ...

........................................................................
.............................. CYCLE   19 ..............................
........................................................................

 iter      E             dE          RMSdq      gap      omega  full diag
   1    -27.9822377 -0.279822E+02  0.895E-01    0.10       0.0  T
   2    -27.6005823  0.381655E+00  0.481E+00    0.82       1.0  T
   3    -27.8301942 -0.229612E+00  0.304E+00    0.10       1.0  T
   4    -27.9809024 -0.150708E+00  0.956E-01    0.10       1.0  T
   5    -27.9881889 -0.728648E-02  0.569E-01    0.09       1.0  T
   6    -27.9882467 -0.577538E-04  0.536E-01    0.06       1.0  T
   7    -27.9849282  0.331845E-02  0.705E-01    0.06       1.0  T
   8    -27.9926195 -0.769129E-02  0.159E-02    0.07       1.5  T
   9    -27.9922712  0.348302E-03  0.153E-01    0.07       1.0  T
  10    -27.9926066 -0.335400E-03  0.329E-02    0.07       1.0  T
  11    -27.9926209 -0.142728E-04  0.997E-03    0.07       2.4  T
  12    -27.9926218 -0.914855E-06  0.602E-03    0.07       4.0  T
  13    -27.9926219 -0.141047E-06  0.514E-03    0.07       4.7  T
  14    -27.9926222 -0.286148E-06  0.260E-03    0.07       9.3  T
  15    -27.9926223 -0.946129E-07  0.578E-04    0.07      42.0  T
  16    -27.9926223 -0.278596E-08  0.376E-04    0.07      64.5  T
     SCC iter.                  ...        0 min,  9.986 sec
     gradient                   ...        0 min,  0.229 sec
 * total energy  :   -27.6794261 Eh     change       -0.2343157E-02 Eh
   gradient norm :     0.0445098 Eh/α   predicted    -0.2022701E-02 ( -13.68%)
   displ. norm   :     0.2659371 α      lambda       -0.2864122E-02
   maximum displ.:     0.1625876 α      in ANC's #6, #7, #10, ...

........................................................................
.............................. CYCLE   20 ..............................
........................................................................

 iter      E             dE          RMSdq      gap      omega  full diag
   1    -27.9953866 -0.279954E+02  0.627E-01    0.10       0.0  T
   2    -27.6164457  0.378941E+00  0.466E+00    0.58       1.0  T
   3    -27.9433802 -0.326934E+00  0.186E+00    0.07       1.0  T
   4    -27.9817552 -0.383751E-01  0.123E+00    0.12       1.0  T
   5    -27.9910449 -0.928963E-02  0.858E-01    0.11       1.0  T
   6    -27.9947571 -0.371222E-02  0.662E-01    0.10       1.0  T
   7    -27.9991745 -0.441745E-02  0.319E-01    0.07       1.0  T
   8    -28.0003424 -0.116786E-02  0.160E-01    0.08       1.0  T
   9    -28.0003730 -0.306060E-04  0.153E-01    0.08       1.0  T
  10    -28.0007212 -0.348234E-03  0.237E-03    0.08      10.2  T
  11    -28.0007209  0.352480E-06  0.537E-03    0.08       4.5  T
  12    -28.0007212 -0.277365E-06  0.312E-03    0.08       7.8  T
  13    -28.0007213 -0.143528E-06  0.214E-04    0.08     113.6  T
  14    -28.0007213  0.212257E-09  0.241E-04    0.08     100.5  T
     SCC iter.                  ...        0 min,  4.945 sec
     gradient                   ...        0 min,  0.343 sec
 * total energy  :   -27.6805059 Eh     change       -0.1079838E-02 Eh
   gradient norm :     0.0350834 Eh/α   predicted    -0.1533346E-02 (  42.00%)
   displ. norm   :     0.3027530 α      lambda       -0.1973950E-02
   maximum displ.:     0.2488456 α      in ANC's #1, #4, #3, ...
 * RMSD in coord.:     1.3663841 α      energy gain  -0.1428178E+01 Eh

generating ANC from exact Hessian ...
Using Lindh-Hessian (1995)
 Shifting diagonal of input Hessian by    1.1585521003936349E-002
 Lowest  eigenvalues of input Hessian
    0.010000    0.000000    0.000000    0.000000    0.000000    0.000000
    0.000000    0.012580    0.013933    0.015672    0.017456    0.020461
    0.023610    0.028382    0.033261    0.045344    0.054724    0.060871
 Highest eigenvalues
    1.769574    2.028511    2.352264    3.596476    4.078591    6.699757


........................................................................
.............................. CYCLE   21 ..............................
........................................................................

 iter      E             dE          RMSdq      gap      omega  full diag
   1    -27.9636597 -0.279637E+02  0.144E+00    0.07       0.0  T
   2    -27.8990981  0.645616E-01  0.305E+00    1.62       1.0  T
   3    -27.9240540 -0.249559E-01  0.244E+00    0.48       1.0  T
   4    -27.9578027 -0.337487E-01  0.176E+00    0.16       1.0  T
   5    -27.7810651  0.176738E+00  0.341E+00    0.13       1.0  T
   6    -27.8900389 -0.108974E+00  0.245E+00    0.09       1.0  T
   7    -27.9615730 -0.715340E-01  0.168E+00    0.15       1.0  T
   8    -27.9922589 -0.306860E-01  0.601E-01    0.09       1.0  T
   9    -27.9920932  0.165714E-03  0.609E-01    0.09       1.0  T
  10    -27.9947447 -0.265152E-02  0.424E-01    0.09       1.0  T
  11    -27.9968612 -0.211645E-02  0.177E-01    0.07       1.0  T
  12    -27.9973165 -0.455328E-03  0.422E-02    0.08       1.0  T
  13    -27.9973169 -0.441314E-06  0.417E-02    0.08       1.0  T
  14    -27.9973345 -0.175162E-04  0.242E-02    0.08       1.0  T
  15    -27.9973396 -0.512517E-05  0.156E-02    0.08       1.6  T
  16    -27.9973430 -0.342104E-05  0.434E-03    0.08       5.6  T
  17    -27.9973433 -0.248963E-06  0.155E-03    0.08      15.6  T
  18    -27.9973432  0.173388E-07  0.188E-03    0.08      12.9  T
  19    -27.9973433 -0.514548E-07  0.379E-04    0.08      63.9  T
  20    -27.9973433 -0.216493E-08  0.342E-05    0.08     710.0  T
     SCC iter.                  ...        0 min, 12.215 sec
     gradient                   ...        0 min,  0.383 sec
 * total energy  :   -27.6817758 Eh     change       -0.1269894E-02 Eh
   gradient norm :     0.0475500 Eh/α   predicted     0.0000000E+00 (-100.00%)
   displ. norm   :     0.3093739 α      lambda       -0.3702361E-02
   maximum displ.:     0.1956899 α      in ANC's #4, #2, #6, ...

........................................................................
.............................. CYCLE   22 ..............................
........................................................................

 iter      E             dE          RMSdq      gap      omega  full diag
   1    -27.9913693 -0.279914E+02  0.700E-01    0.11       0.0  T
   2    -27.6109075  0.380462E+00  0.463E+00    0.67       1.0  T
   3    -27.8934461 -0.282539E+00  0.243E+00    0.10       1.0  T
   4    -27.9931500 -0.997039E-01  0.617E-01    0.10       1.0  T
   5    -27.9773337  0.158163E-01  0.126E+00    0.13       1.0  T
   6    -27.9842436 -0.690988E-02  0.103E+00    0.12       1.0  T
   7    -27.9924834 -0.823984E-02  0.652E-01    0.11       1.0  T
   8    -27.9983230 -0.583963E-02  0.882E-02    0.09       1.0  T
   9    -27.9978647  0.458351E-03  0.192E-01    0.09       1.0  T
  10    -27.9984131 -0.548393E-03  0.380E-02    0.09       1.0  T
  11    -27.9983471  0.659878E-04  0.755E-02    0.09       1.0  T
  12    -27.9984263 -0.792026E-04  0.230E-02    0.09       1.1  T
  13    -27.9984343 -0.804371E-05  0.104E-03    0.09      23.4  T
  14    -27.9984343  0.639795E-07  0.228E-03    0.09      10.7  T
  15    -27.9984342  0.131778E-07  0.245E-03    0.09       9.9  T
  16    -27.9984343 -0.913374E-07  0.352E-05    0.09     689.7  T
  17    -27.9984343  0.603730E-09  0.200E-04    0.09     121.0  T
     SCC iter.                  ...        0 min,  5.892 sec
     gradient                   ...        0 min,  0.136 sec
 * total energy  :   -27.6847920 Eh     change       -0.3016143E-02 Eh
   gradient norm :     0.0158214 Eh/α   predicted    -0.2028362E-02 ( -32.75%)
   displ. norm   :     0.6693672 α      lambda       -0.5126101E-02
   maximum displ.:     0.4346676 α      in ANC's #4, #2, #6, ...

........................................................................
.............................. CYCLE   23 ..............................
........................................................................

 iter      E             dE          RMSdq      gap      omega  full diag
   1    -27.9971371 -0.279971E+02  0.445E-01    0.13       0.0  T
   2    -27.8677191  0.129418E+00  0.266E+00    0.14       1.0  T
   3    -27.9901091 -0.122390E+00  0.709E-01    0.12       1.0  T
   4    -27.9890217  0.108739E-02  0.743E-01    0.14       1.0  T
   5    -27.9964225 -0.740075E-02  0.273E-01    0.13       1.0  T
   6    -27.9974222 -0.999770E-03  0.755E-02    0.12       1.0  T
   7    -27.9975030 -0.807419E-04  0.120E-02    0.12       2.0  T
   8    -27.9974954  0.757934E-05  0.233E-02    0.12       1.0  T
   9    -27.9975038 -0.839167E-05  0.428E-03    0.12       5.7  T
  10    -27.9975040 -0.244932E-06  0.111E-03    0.12      21.9  T
  11    -27.9975040  0.407762E-07  0.175E-03    0.12      13.8  T
  12    -27.9975040 -0.397051E-07  0.581E-04    0.12      41.7  T
  13    -27.9975040 -0.457379E-08  0.643E-05    0.12     377.2  T
     SCC iter.                  ...        0 min,  5.499 sec
     gradient                   ...        0 min,  0.308 sec
 * total energy  :   -27.6887377 Eh     change       -0.3945742E-02 Eh
   gradient norm :     0.0500918 Eh/α   predicted    -0.3711465E-02 (  -5.94%)
   displ. norm   :     0.6135977 α      lambda       -0.4031988E-02
   maximum displ.:     0.3923135 α      in ANC's #4, #2, #6, ...

........................................................................
.............................. CYCLE   24 ..............................
........................................................................

 iter      E             dE          RMSdq      gap      omega  full diag
   1    -27.9949701 -0.279950E+02  0.389E-01    0.17       0.0  T
   2    -27.9946065  0.363585E-03  0.264E-01    0.17       1.0  T
   3    -27.9563304  0.382760E-01  0.172E+00    0.30       1.0  T
   4    -27.9913091 -0.349786E-01  0.497E-01    0.18       1.0  T
   5    -27.9947942 -0.348517E-02  0.133E-01    0.17       1.0  T
   6    -27.9950468 -0.252518E-03  0.280E-02    0.17       1.0  T
   7    -27.9949646  0.821351E-04  0.759E-02    0.17       1.0  T
   8    -27.9950543 -0.896288E-04  0.754E-03    0.17       3.2  T
   9    -27.9950550 -0.770677E-06  0.337E-03    0.17       7.2  T
  10    -27.9950549  0.140319E-06  0.422E-03    0.17       5.7  T
  11    -27.9950550 -0.111027E-06  0.311E-03    0.17       7.8  T
  12    -27.9950551 -0.137566E-06  0.773E-04    0.17      31.4  T
  13    -27.9950551 -0.757157E-08  0.318E-04    0.17      76.2  T
     SCC iter.                  ...        0 min,  5.865 sec
     gradient                   ...        0 min,  0.267 sec
 * total energy  :   -27.6920356 Eh     change       -0.3297899E-02 Eh
   gradient norm :     0.0641482 Eh/α   predicted    -0.2775028E-02 ( -15.85%)
   displ. norm   :     0.5912657 α      lambda       -0.6493897E-02
   maximum displ.:     0.3336412 α      in ANC's #4, #2, #3, ...

........................................................................
.............................. CYCLE   25 ..............................
........................................................................

 iter      E             dE          RMSdq      gap      omega  full diag
   1    -27.9926848 -0.279927E+02  0.717E-01    0.28       0.0  T
   2    -27.6903706  0.302314E+00  0.411E+00    0.52       1.0  T
   3    -27.9978801 -0.307509E+00  0.277E-01    0.24       1.0  T
   4    -27.9977726  0.107475E-03  0.219E-01    0.25       1.0  T
   5    -27.9982502 -0.477630E-03  0.824E-02    0.24       1.0  T
   6    -27.9982837 -0.334747E-04  0.834E-02    0.24       1.0  T
   7    -27.9983841 -0.100445E-03  0.223E-02    0.24       1.1  T
   8    -27.9983903 -0.611511E-05  0.776E-03    0.24       3.1  T
   9    -27.9983909 -0.619207E-06  0.379E-03    0.24       6.4  T
  10    -27.9983910 -0.947592E-07  0.259E-03    0.24       9.4  T
  11    -27.9983911 -0.101492E-06  0.294E-04    0.24      82.5  T
  12    -27.9983911  0.384344E-08  0.547E-04    0.24      44.4  T
     SCC iter.                  ...        0 min,  4.277 sec
     gradient                   ...        0 min,  0.368 sec
 * total energy  :   -27.6976200 Eh     change       -0.5584344E-02 Eh
   gradient norm :     0.0592240 Eh/α   predicted    -0.4382049E-02 ( -21.53%)
   displ. norm   :     0.6643328 α      lambda       -0.1002493E-01
   maximum displ.:     0.3405223 α      in ANC's #4, #3, #2, ...

........................................................................
.............................. CYCLE   26 ..............................
........................................................................

 iter      E             dE          RMSdq      gap      omega  full diag
   1    -28.0115369 -0.280115E+02  0.588E-01    0.42       0.0  T
   2    -27.9426085  0.689283E-01  0.214E+00    0.38       1.0  T
   3    -28.0128548 -0.702462E-01  0.322E-01    0.41       1.0  T
   4    -28.0123458  0.509004E-03  0.292E-01    0.38       1.0  T
   5    -28.0135816 -0.123581E-02  0.738E-02    0.38       1.0  T
   6    -28.0136325 -0.508905E-04  0.497E-02    0.38       1.0  T
   7    -28.0136638 -0.313524E-04  0.132E-02    0.38       1.8  T
   8    -28.0136630  0.861462E-06  0.130E-02    0.39       1.9  T
   9    -28.0136652 -0.226856E-05  0.252E-03    0.39       9.6  T
  10    -28.0136653 -0.372357E-07  0.112E-03    0.39      21.6  T
  11    -28.0136653 -0.551589E-08  0.399E-04    0.39      60.8  T
  12    -28.0136653 -0.164655E-08  0.160E-04    0.39     151.8  T
     SCC iter.                  ...        0 min,  4.957 sec
     gradient                   ...        0 min,  0.211 sec
 * total energy  :   -27.7057615 Eh     change       -0.8141535E-02 Eh
   gradient norm :     0.0387708 Eh/α   predicted    -0.7224602E-02 ( -11.26%)
   displ. norm   :     0.8306051 α      lambda       -0.1023380E-01
   maximum displ.:     0.4265393 α      in ANC's #3, #4, #2, ...

........................................................................
.............................. CYCLE   27 ..............................
........................................................................

 iter      E             dE          RMSdq      gap      omega  full diag
   1    -28.0247064 -0.280247E+02  0.871E-01    0.62       0.0  T
   2    -28.0225707  0.213571E-02  0.623E-01    0.71       1.0  T
   3    -28.0193533  0.321740E-02  0.775E-01    0.60       1.0  T
   4    -28.0271597 -0.780637E-02  0.137E-01    0.64       1.0  T
   5    -28.0272254 -0.656963E-04  0.586E-02    0.63       1.0  T
   6    -28.0272633 -0.378632E-04  0.381E-02    0.63       1.0  T
   7    -28.0272745 -0.112602E-04  0.179E-02    0.63       1.4  T
   8    -28.0272788 -0.428359E-05  0.733E-03    0.63       3.3  T
   9    -28.0272791 -0.305910E-06  0.231E-03    0.63      10.5  T
  10    -28.0272791 -0.316408E-07  0.141E-03    0.63      17.2  T
  11    -28.0272792 -0.234913E-07  0.504E-04    0.63      48.1  T
  12    -28.0272792 -0.246797E-08  0.135E-04    0.63     179.9  T
     SCC iter.                  ...        0 min,  5.439 sec
     gradient                   ...        0 min,  0.337 sec
 * total energy  :   -27.7158488 Eh     change       -0.1008727E-01 Eh
   gradient norm :     0.0540321 Eh/α   predicted    -0.8647080E-02 ( -14.28%)
   displ. norm   :     0.7871727 α      lambda       -0.1481432E-01
   maximum displ.:     0.4400407 α      in ANC's #12, #3, #4, ...

........................................................................
.............................. CYCLE   28 ..............................
........................................................................

 iter      E             dE          RMSdq      gap      omega  full diag
   1    -28.0713122 -0.280713E+02  0.107E+00    1.21       0.0  T
   2    -28.0713334 -0.211798E-04  0.718E-01    1.08       1.0  T
   3    -28.0724689 -0.113549E-02  0.453E-01    1.18       1.0  T
   4    -28.0739982 -0.152936E-02  0.200E-01    1.14       1.0  T
   5    -28.0746987 -0.700511E-03  0.622E-02    1.14       1.0  T
   6    -28.0747339 -0.351406E-04  0.297E-02    1.14       1.0  T
   7    -28.0747390 -0.516943E-05  0.107E-02    1.14       2.3  T
   8    -28.0747394 -0.395902E-06  0.390E-03    1.14       6.2  T
   9    -28.0747395 -0.596926E-07  0.173E-03    1.14      14.0  T
  10    -28.0747395 -0.138562E-07  0.722E-04    1.14      33.6  T
  11    -28.0747395 -0.275863E-08  0.271E-04    1.14      89.5  T
     SCC iter.                  ...        0 min,  4.254 sec
     gradient                   ...        0 min,  0.217 sec
 * total energy  :   -27.7091992 Eh     change        0.6649547E-02 Eh
   gradient norm :     0.2047842 Eh/α   predicted    -0.1199713E-01 (-280.42%)
   displ. norm   :     0.4276062 α      lambda       -0.3773168E-01
   maximum displ.:     0.3428147 α      in ANC's #3, #4, #2, ...

........................................................................
.............................. CYCLE   29 ..............................
........................................................................

 iter      E             dE          RMSdq      gap      omega  full diag
   1    -28.0439215 -0.280439E+02  0.533E-01    1.04       0.0  T
   2    -28.0446232 -0.701710E-03  0.329E-01    1.03       1.0  T
   3    -28.0446153  0.788154E-05  0.214E-01    1.00       1.0  T
   4    -28.0448206 -0.205335E-03  0.609E-02    1.00       1.0  T
   5    -28.0448032  0.173948E-04  0.568E-02    1.01       1.0  T
   6    -28.0448655 -0.622654E-04  0.129E-02    1.00       1.9  T
   7    -28.0448657 -0.219213E-06  0.104E-02    1.01       2.3  T
   8    -28.0448671 -0.133313E-05  0.208E-03    1.01      11.7  T
   9    -28.0448671 -0.953704E-08  0.123E-03    1.01      19.8  T
  10    -28.0448671 -0.116007E-07  0.419E-04    1.01      57.9  T
  11    -28.0448671 -0.618165E-09  0.238E-04    1.01     102.0  T
     SCC iter.                  ...        0 min,  4.249 sec
     gradient                   ...        0 min,  0.345 sec
 * total energy  :   -27.7249158 Eh     change       -0.1571660E-01 Eh
   gradient norm :     0.0778385 Eh/α   predicted    -0.2231540E-01 (  41.99%)
   displ. norm   :     0.5443439 α      lambda       -0.1279807E-01
   maximum displ.:     0.2498059 α      in ANC's #4, #3, #7, ...

........................................................................
.............................. CYCLE   30 ..............................
........................................................................

 iter      E             dE          RMSdq      gap      omega  full diag
   1    -28.0198219 -0.280198E+02  0.926E-01    0.70       0.0  T
   2    -28.0136731  0.614879E-02  0.798E-01    0.85       1.0  T
   3    -28.0208521 -0.717902E-02  0.554E-01    0.73       1.0  T
   4    -28.0238081 -0.295592E-02  0.146E-01    0.76       1.0  T
   5    -28.0239537 -0.145681E-03  0.846E-02    0.76       1.0  T
   6    -28.0240638 -0.110038E-03  0.267E-02    0.76       1.0  T
   7    -28.0240742 -0.104170E-04  0.998E-03    0.76       2.4  T
   8    -28.0240744 -0.211824E-06  0.445E-03    0.76       5.5  T
   9    -28.0240747 -0.321736E-06  0.195E-03    0.76      12.4  T
  10    -28.0240747 -0.139490E-09  0.110E-03    0.76      22.1  T
  11    -28.0240747 -0.370945E-08  0.331E-04    0.76      73.2  T
  12    -28.0240747 -0.166807E-09  0.183E-04    0.76     132.3  T
     SCC iter.                  ...        0 min,  3.895 sec
     gradient                   ...        0 min,  0.336 sec
 * total energy  :   -27.7044924 Eh     change        0.2042344E-01 Eh
   gradient norm :     0.3786633 Eh/α   predicted    -0.8295154E-02 (-140.62%)
   displ. norm   :     0.3174634 α      lambda       -0.4451312E-01
   maximum displ.:     0.1264815 α      in ANC's #3, #7, #4, ...

........................................................................
.............................. CYCLE   31 ..............................
........................................................................

 iter      E             dE          RMSdq      gap      omega  full diag
   1    -28.0430946 -0.280431E+02  0.648E-01    1.08       0.0  T
   2    -28.0411147  0.197990E-02  0.514E-01    0.96       1.0  T
   3    -28.0445602 -0.344550E-02  0.293E-01    1.03       1.0  T
   4    -28.0452658 -0.705614E-03  0.107E-01    1.00       1.0  T
   5    -28.0454422 -0.176454E-03  0.460E-02    1.00       1.0  T
   6    -28.0454633 -0.210486E-04  0.147E-02    1.00       1.6  T
   7    -28.0454651 -0.183243E-05  0.616E-03    1.00       3.9  T
   8    -28.0454653 -0.133440E-06  0.210E-03    1.00      11.6  T
   9    -28.0454653 -0.356200E-07  0.736E-04    1.00      32.9  T
  10    -28.0454653 -0.386349E-08  0.373E-04    1.00      65.0  T
     SCC iter.                  ...        0 min,  4.330 sec
     gradient                   ...        0 min,  0.388 sec
 * total energy  :   -27.7289088 Eh     change       -0.2441637E-01 Eh
   gradient norm :     0.0518820 Eh/α   predicted    -0.2449964E-01 (   0.34%)
   displ. norm   :     0.3032334 α      lambda       -0.5398985E-02
   maximum displ.:     0.1628379 α      in ANC's #2, #3, #5, ...

........................................................................
.............................. CYCLE   32 ..............................
........................................................................

 iter      E             dE          RMSdq      gap      omega  full diag
   1    -28.0641724 -0.280642E+02  0.360E-01    1.21       0.0  T
   2    -28.0642040 -0.315926E-04  0.235E-01    1.17       1.0  T
   3    -28.0643433 -0.139323E-03  0.156E-01    1.20       1.0  T
   4    -28.0644339 -0.905719E-04  0.579E-02    1.18       1.0  T
   5    -28.0645013 -0.673535E-04  0.257E-02    1.18       1.0  T
   6    -28.0645099 -0.865339E-05  0.971E-03    1.18       2.5  T
   7    -28.0645107 -0.753085E-06  0.250E-03    1.18       9.7  T
   8    -28.0645107 -0.123525E-07  0.904E-04    1.18      26.8  T
   9    -28.0645107 -0.510394E-08  0.279E-04    1.18      86.9  T
     SCC iter.                  ...        0 min,  2.297 sec
     gradient                   ...        0 min,  0.367 sec
 * total energy  :   -27.7316792 Eh     change       -0.2770419E-02 Eh
   gradient norm :     0.0578402 Eh/α   predicted    -0.2947717E-02 (   6.40%)
   displ. norm   :     0.3689242 α      lambda       -0.6589753E-02
   maximum displ.:     0.2082000 α      in ANC's #1, #15, #5, ...

........................................................................
.............................. CYCLE   33 ..............................
........................................................................

 iter      E             dE          RMSdq      gap      omega  full diag
   1    -28.0713160 -0.280713E+02  0.350E-01    1.34       0.0  T
   2    -28.0716304 -0.314420E-03  0.306E-01    1.40       1.0  T
   3    -28.0722391 -0.608677E-03  0.132E-01    1.38       1.0  T
   4    -28.0721193  0.119853E-03  0.878E-02    1.38       1.0  T
   5    -28.0722694 -0.150151E-03  0.317E-02    1.38       1.0  T
   6    -28.0722774 -0.797972E-05  0.121E-02    1.38       2.0  T
   7    -28.0722787 -0.124868E-05  0.484E-03    1.38       5.0  T
   8    -28.0722788 -0.187503E-06  0.170E-03    1.38      14.3  T
   9    -28.0722788  0.142720E-08  0.863E-04    1.38      28.1  T
  10    -28.0722788 -0.678302E-08  0.354E-04    1.38      68.6  T
     SCC iter.                  ...        0 min,  4.024 sec
     gradient                   ...        0 min,  0.446 sec
 * total energy  :   -27.7347692 Eh     change       -0.3089982E-02 Eh
   gradient norm :     0.0736884 Eh/α   predicted    -0.3743327E-02 (  21.14%)
   displ. norm   :     0.4344333 α      lambda       -0.9689557E-02
   maximum displ.:     0.1626150 α      in ANC's #15, #4, #17, ...

........................................................................
.............................. CYCLE   34 ..............................
........................................................................

 iter      E             dE          RMSdq      gap      omega  full diag
   1    -28.0760788 -0.280761E+02  0.468E-01    1.47       0.0  T
   2    -28.0762796 -0.200798E-03  0.337E-01    1.42       1.0  T
   3    -28.0764482 -0.168593E-03  0.172E-01    1.45       1.0  T
   4    -28.0765083 -0.600820E-04  0.895E-02    1.44       1.0  T
   5    -28.0766495 -0.141232E-03  0.257E-02    1.44       1.0  T
   6    -28.0766525 -0.299495E-05  0.148E-02    1.44       1.6  T
   7    -28.0766556 -0.307024E-05  0.224E-03    1.44      10.8  T
   8    -28.0766556 -0.192818E-07  0.124E-03    1.44      19.5  T
   9    -28.0766556 -0.381535E-08  0.518E-04    1.44      46.8  T
  10    -28.0766556 -0.229842E-08  0.197E-04    1.44     123.2  T
     SCC iter.                  ...        0 min,  2.390 sec
     gradient                   ...        0 min,  0.284 sec
 * total energy  :   -27.7408989 Eh     change       -0.6129723E-02 Eh
   gradient norm :     0.0613916 Eh/α   predicted    -0.5759150E-02 (  -6.05%)
   displ. norm   :     0.5613986 α      lambda       -0.1112578E-01
   maximum displ.:     0.2398226 α      in ANC's #15, #17, #7, ...

........................................................................
.............................. CYCLE   35 ..............................
........................................................................

 iter      E             dE          RMSdq      gap      omega  full diag
   1    -28.0742570 -0.280743E+02  0.782E-01    1.57       0.0  T
   2    -28.0733037  0.953292E-03  0.711E-01    1.66       1.0  T
   3    -28.0782914 -0.498771E-02  0.266E-01    1.61       1.0  T
   4    -28.0779073  0.384115E-03  0.169E-01    1.60       1.0  T
   5    -28.0785216 -0.614366E-03  0.411E-02    1.61       1.0  T
   6    -28.0785326 -0.109239E-04  0.226E-02    1.61       1.1  T
   7    -28.0785360 -0.344115E-05  0.738E-03    1.61       3.3  T
   8    -28.0785366 -0.624856E-06  0.261E-03    1.61       9.3  T
   9    -28.0785366 -0.930390E-08  0.165E-03    1.61      14.7  T
  10    -28.0785366 -0.135708E-07  0.456E-04    1.61      53.2  T
  11    -28.0785366 -0.311157E-09  0.231E-04    1.61     105.2  T
     SCC iter.                  ...        0 min,  2.013 sec
     gradient                   ...        0 min,  0.238 sec
 * total energy  :   -27.7432244 Eh     change       -0.2325566E-02 Eh
   gradient norm :     0.1312017 Eh/α   predicted    -0.7316087E-02 ( 214.59%)
   displ. norm   :     0.2489113 α      lambda       -0.8203596E-02
   maximum displ.:     0.1590202 α      in ANC's #1, #3, #7, ...

........................................................................
.............................. CYCLE   36 ..............................
........................................................................

 iter      E             dE          RMSdq      gap      omega  full diag
   1    -28.0832888 -0.280833E+02  0.293E-01    1.66       0.0  T
   2    -28.0833594 -0.705516E-04  0.317E-01    1.61       1.0  T
   3    -28.0840638 -0.704427E-03  0.120E-01    1.63       1.0  T
   4    -28.0839769  0.869394E-04  0.674E-02    1.63       1.0  T
   5    -28.0840707 -0.938097E-04  0.178E-02    1.63       1.4  T
   6    -28.0840737 -0.297548E-05  0.104E-02    1.63       2.3  T
   7    -28.0840749 -0.120513E-05  0.236E-03    1.63      10.3  T
   8    -28.0840749 -0.318725E-07  0.127E-03    1.63      19.2  T
   9    -28.0840749 -0.564094E-08  0.728E-04    1.63      33.3  T
  10    -28.0840749 -0.205511E-08  0.211E-04    1.63     114.9  T
     SCC iter.                  ...        0 min,  2.067 sec
     gradient                   ...        0 min,  0.067 sec
 * total energy  :   -27.7486100 Eh     change       -0.5385544E-02 Eh
   gradient norm :     0.0413673 Eh/α   predicted    -0.4355934E-02 ( -19.12%)
   displ. norm   :     0.3326069 α      lambda       -0.4142158E-02
   maximum displ.:     0.1722125 α      in ANC's #1, #3, #5, ...

........................................................................
.............................. CYCLE   37 ..............................
........................................................................

 iter      E             dE          RMSdq      gap      omega  full diag
   1    -28.0942922 -0.280943E+02  0.253E-01    1.73       0.0  T
   2    -28.0943098 -0.175626E-04  0.152E-01    1.74       1.0  T
   3    -28.0943017  0.804415E-05  0.114E-01    1.73       1.0  T
   4    -28.0943945 -0.927570E-04  0.183E-02    1.73       1.3  T
   5    -28.0943925  0.200385E-05  0.136E-02    1.73       1.8  T
   6    -28.0943954 -0.288605E-05  0.459E-03    1.73       5.3  T
   7    -28.0943958 -0.393977E-06  0.135E-03    1.73      18.0  T
   8    -28.0943958 -0.857017E-08  0.697E-04    1.73      34.8  T
   9    -28.0943958 -0.140986E-08  0.372E-04    1.73      65.1  T
     SCC iter.                  ...        0 min,  2.493 sec
     gradient                   ...        0 min,  0.283 sec
 * total energy  :   -27.7518172 Eh     change       -0.3207185E-02 Eh
   gradient norm :     0.0389084 Eh/α   predicted    -0.2300197E-02 ( -28.28%)
   displ. norm   :     0.4752918 α      lambda       -0.4608946E-02
   maximum displ.:     0.1886918 α      in ANC's #3, #1, #5, ...

........................................................................
.............................. CYCLE   38 ..............................
........................................................................

 iter      E             dE          RMSdq      gap      omega  full diag
   1    -28.1005631 -0.281006E+02  0.445E-01    1.83       0.0  T
   2    -28.1006388 -0.756479E-04  0.383E-01    1.87       1.0  T
   3    -28.1016389 -0.100016E-02  0.145E-01    1.85       1.0  T
   4    -28.1016531 -0.141687E-04  0.360E-02    1.85       1.0  T
   5    -28.1016472  0.593115E-05  0.296E-02    1.85       1.0  T
   6    -28.1016612 -0.140502E-04  0.109E-02    1.85       2.2  T
   7    -28.1016629 -0.162357E-05  0.280E-03    1.85       8.7  T
   8    -28.1016629 -0.483664E-07  0.123E-03    1.85      19.7  T
   9    -28.1016629  0.441034E-09  0.662E-04    1.85      36.6  T
  10    -28.1016629 -0.344555E-08  0.188E-04    1.85     129.2  T
     SCC iter.                  ...        0 min,  2.438 sec
     gradient                   ...        0 min,  0.271 sec
 * total energy  :   -27.7550756 Eh     change       -0.3258405E-02 Eh
   gradient norm :     0.0430279 Eh/α   predicted    -0.2825048E-02 ( -13.30%)
   displ. norm   :     0.4328306 α      lambda       -0.3247960E-02
   maximum displ.:     0.1781228 α      in ANC's #1, #7, #3, ...

........................................................................
.............................. CYCLE   39 ..............................
........................................................................

 iter      E             dE          RMSdq      gap      omega  full diag
   1    -28.1105303 -0.281105E+02  0.286E-01    1.93       0.0  T
   2    -28.1105470 -0.166620E-04  0.160E-01    1.93       1.0  T
   3    -28.1104060  0.140917E-03  0.997E-02    1.94       1.0  T
   4    -28.1105657 -0.159701E-03  0.272E-02    1.94       1.0  T
   5    -28.1105689 -0.316623E-05  0.179E-02    1.94       1.4  T
   6    -28.1105741 -0.516905E-05  0.466E-03    1.94       5.2  T
   7    -28.1105743 -0.226875E-06  0.131E-03    1.94      18.4  T
   8    -28.1105743 -0.963238E-08  0.688E-04    1.94      35.2  T
   9    -28.1105743 -0.162016E-08  0.333E-04    1.94      72.8  T
     SCC iter.                  ...        0 min,  1.916 sec
     gradient                   ...        0 min,  0.343 sec
 * total energy  :   -27.7572061 Eh     change       -0.2130528E-02 Eh
   gradient norm :     0.0244291 Eh/α   predicted    -0.1928222E-02 (  -9.50%)
   displ. norm   :     0.5622097 α      lambda       -0.2389591E-02
   maximum displ.:     0.2215073 α      in ANC's #6, #1, #5, ...

........................................................................
.............................. CYCLE   40 ..............................
........................................................................

 iter      E             dE          RMSdq      gap      omega  full diag
   1    -28.1067067 -0.281067E+02  0.380E-01    1.95       0.0  T
   2    -28.1067441 -0.374164E-04  0.224E-01    1.95       1.0  T
   3    -28.1064571  0.287020E-03  0.177E-01    1.96       1.0  T
   4    -28.1068876 -0.430469E-03  0.496E-02    1.95       1.0  T
   5    -28.1069161 -0.284608E-04  0.239E-02    1.95       1.0  T
   6    -28.1069217 -0.568425E-05  0.121E-02    1.95       2.0  T
   7    -28.1069228 -0.106431E-05  0.191E-03    1.95      12.7  T
   8    -28.1069228 -0.185236E-07  0.108E-03    1.95      22.4  T
   9    -28.1069228  0.853564E-09  0.451E-04    1.95      53.8  T
  10    -28.1069228 -0.294844E-08  0.146E-04    1.95     166.4  T
     SCC iter.                  ...        0 min,  2.281 sec
     gradient                   ...        0 min,  0.065 sec
 * total energy  :   -27.7568738 Eh     change        0.3323274E-03 Eh
   gradient norm :     0.0705292 Eh/α   predicted    -0.1572455E-02 (-573.16%)
   displ. norm   :     0.1863101 α      lambda       -0.4552641E-02
   maximum displ.:     0.0938004 α      in ANC's #7, #12, #1, ...

........................................................................
.............................. CYCLE   41 ..............................
........................................................................

 iter      E             dE          RMSdq      gap      omega  full diag
   1    -28.1118880 -0.281119E+02  0.186E-01    1.91       0.0  T
   2    -28.1118881 -0.842774E-07  0.117E-01    1.91       1.0  T
   3    -28.1118736  0.145057E-04  0.919E-02    1.91       1.0  T
   4    -28.1119333 -0.597116E-04  0.203E-02    1.91       1.2  T
   5    -28.1119354 -0.208579E-05  0.135E-02    1.91       1.8  T
   6    -28.1119389 -0.348948E-05  0.322E-03    1.91       7.5  T
   7    -28.1119390 -0.873060E-07  0.109E-03    1.91      22.3  T
   8    -28.1119390 -0.448567E-08  0.568E-04    1.91      42.7  T
   9    -28.1119390 -0.129656E-08  0.212E-04    1.91     114.1  T
     SCC iter.                  ...        0 min,  1.532 sec
     gradient                   ...        0 min,  0.299 sec
 * total energy  :   -27.7591267 Eh     change       -0.2252887E-02 Eh
   gradient norm :     0.0254447 Eh/α   predicted    -0.2355333E-02 (   4.55%)
   displ. norm   :     0.1912280 α      lambda       -0.9803427E-03
   maximum displ.:     0.1036563 α      in ANC's #6, #2, #4, ...

........................................................................
.............................. CYCLE   42 ..............................
........................................................................

 iter      E             dE          RMSdq      gap      omega  full diag
   1    -28.1141872 -0.281142E+02  0.131E-01    1.93       0.0  T
   2    -28.1142015 -0.143596E-04  0.873E-02    1.92       1.0  T
   3    -28.1142208 -0.192779E-04  0.528E-02    1.93       1.0  T
   4    -28.1142293 -0.853271E-05  0.137E-02    1.93       1.8  T
   5    -28.1142308 -0.144256E-05  0.491E-03    1.93       4.9  T
   6    -28.1142308  0.221715E-07  0.329E-03    1.93       7.4  T
   7    -28.1142310 -0.220947E-06  0.998E-04    1.93      24.3  T
   8    -28.1142310 -0.115864E-07  0.462E-04    1.93      52.5  T
     SCC iter.                  ...        0 min,  1.291 sec
     gradient                   ...        0 min,  0.206 sec
 * total energy  :   -27.7597473 Eh     change       -0.6206070E-03 Eh
   gradient norm :     0.0167299 Eh/α   predicted    -0.5080979E-03 ( -18.13%)
   displ. norm   :     0.3965849 α      lambda       -0.1054943E-02
   maximum displ.:     0.2255509 α      in ANC's #6, #1, #3, ...
 * RMSD in coord.:     1.1589550 α      energy gain  -0.7924133E-01 Eh

generating ANC from exact Hessian ...
Using Lindh-Hessian (1995)
 Shifting diagonal of input Hessian by    1.1607389419726773E-002
 Lowest  eigenvalues of input Hessian
    0.010000    0.011321    0.000000    0.000000    0.000000    0.000000
    0.000000    0.000000    0.011707    0.012188    0.012859    0.016082
    0.016390    0.018673    0.021760    0.027221    0.034489    0.054525
 Highest eigenvalues
    1.648065    1.981205    2.196165    3.563113    4.213085    7.136603


........................................................................
.............................. CYCLE   43 ..............................
........................................................................

 iter      E             dE          RMSdq      gap      omega  full diag
   1    -28.1099767 -0.281100E+02  0.215E-01    1.94       0.0  T
   2    -28.1099332  0.435555E-04  0.171E-01    1.94       1.0  T
   3    -28.1100563 -0.123130E-03  0.885E-02    1.94       1.0  T
   4    -28.1101159 -0.595674E-04  0.374E-02    1.94       1.0  T
   5    -28.1101327 -0.168521E-04  0.144E-02    1.94       1.7  T
   6    -28.1101336 -0.871611E-06  0.556E-03    1.94       4.4  T
   7    -28.1101339 -0.257469E-06  0.141E-03    1.94      17.2  T
   8    -28.1101339 -0.703844E-08  0.786E-04    1.94      30.9  T
   9    -28.1101339 -0.624457E-09  0.466E-04    1.94      52.1  T
     SCC iter.                  ...        0 min,  1.181 sec
     gradient                   ...        0 min,  0.044 sec
 * total energy  :   -27.7604451 Eh     change       -0.6978318E-03 Eh
   gradient norm :     0.0156009 Eh/α   predicted     0.0000000E+00 (-100.00%)
   displ. norm   :     0.1172323 α      lambda       -0.6116998E-03
   maximum displ.:     0.0588238 α      in ANC's #5, #3, #8, ...

........................................................................
.............................. CYCLE   44 ..............................
........................................................................

 iter      E             dE          RMSdq      gap      omega  full diag
   1    -28.1135233 -0.281135E+02  0.900E-02    1.93       0.0  T
   2    -28.1135290 -0.568382E-05  0.492E-02    1.93       1.0  T
   3    -28.1135265  0.256177E-05  0.217E-02    1.93       1.1  T
   4    -28.1135292 -0.269763E-05  0.953E-03    1.93       2.5  T
   5    -28.1135303 -0.108364E-05  0.422E-03    1.93       5.8  T
   6    -28.1135304 -0.169157E-06  0.181E-03    1.93      13.4  T
   7    -28.1135305 -0.626658E-07  0.479E-04    1.93      50.6  T
   8    -28.1135305 -0.170860E-08  0.244E-04    1.93      99.5  T
     SCC iter.                  ...        0 min,  1.135 sec
     gradient                   ...        0 min,  0.182 sec
 * total energy  :   -27.7609132 Eh     change       -0.4680915E-03 Eh
   gradient norm :     0.0074586 Eh/α   predicted    -0.3100552E-03 ( -33.76%)
   displ. norm   :     0.2673283 α      lambda       -0.7057711E-03
   maximum displ.:     0.1298293 α      in ANC's #5, #3, #7, ...

........................................................................
.............................. CYCLE   45 ..............................
........................................................................

 iter      E             dE          RMSdq      gap      omega  full diag
   1    -28.1159744 -0.281160E+02  0.175E-01    1.91       0.0  T
   2    -28.1159856 -0.112386E-04  0.977E-02    1.91       1.0  T
   3    -28.1159814  0.417938E-05  0.311E-02    1.91       1.0  T
   4    -28.1159877 -0.623432E-05  0.106E-02    1.91       2.3  T
   5    -28.1159875  0.183232E-06  0.678E-03    1.91       3.6  T
   6    -28.1159882 -0.718353E-06  0.206E-03    1.91      11.8  T
   7    -28.1159883 -0.642883E-07  0.800E-04    1.91      30.3  T
   8    -28.1159883 -0.434405E-08  0.471E-04    1.91      51.5  T
     SCC iter.                  ...        0 min,  1.687 sec
     gradient                   ...        0 min,  0.081 sec
 * total energy  :   -27.7614111 Eh     change       -0.4979533E-03 Eh
   gradient norm :     0.0074652 Eh/α   predicted    -0.3781033E-03 ( -24.07%)
   displ. norm   :     0.3174704 α      lambda       -0.4712555E-03
   maximum displ.:     0.1454796 α      in ANC's #9, #5, #7, ...

........................................................................
.............................. CYCLE   46 ..............................
........................................................................

 iter      E             dE          RMSdq      gap      omega  full diag
   1    -28.1148890 -0.281149E+02  0.185E-01    1.89       0.0  T
   2    -28.1148962 -0.723438E-05  0.106E-01    1.89       1.0  T
   3    -28.1148682  0.279651E-04  0.637E-02    1.89       1.0  T
   4    -28.1149015 -0.332613E-04  0.124E-02    1.89       2.0  T
   5    -28.1149020 -0.466893E-06  0.546E-03    1.89       4.4  T
   6    -28.1149021 -0.129265E-06  0.125E-03    1.89      19.5  T
   7    -28.1149021 -0.924281E-08  0.676E-04    1.89      35.9  T
   8    -28.1149021  0.402736E-08  0.560E-04    1.89      43.3  T
     SCC iter.                  ...        0 min,  1.004 sec
     gradient                   ...        0 min,  0.129 sec
 * total energy  :   -27.7617480 Eh     change       -0.3368326E-03 Eh
   gradient norm :     0.0089454 Eh/α   predicted    -0.2593844E-03 ( -22.99%)
   displ. norm   :     0.2945496 α      lambda       -0.3654034E-03
   maximum displ.:     0.1611193 α      in ANC's #9, #5, #8, ...

........................................................................
.............................. CYCLE   47 ..............................
........................................................................

 iter      E             dE          RMSdq      gap      omega  full diag
   1    -28.1141171 -0.281141E+02  0.151E-01    1.89       0.0  T
   2    -28.1141194 -0.228890E-05  0.907E-02    1.89       1.0  T
   3    -28.1140885  0.309105E-04  0.690E-02    1.89       1.0  T
   4    -28.1141289 -0.404303E-04  0.106E-02    1.89       2.3  T
   5    -28.1141282  0.721832E-06  0.803E-03    1.89       3.0  T
   6    -28.1141294 -0.123064E-05  0.260E-03    1.89       9.3  T
   7    -28.1141295 -0.955011E-07  0.766E-04    1.89      31.7  T
   8    -28.1141295 -0.195056E-08  0.429E-04    1.89      56.5  T
     SCC iter.                  ...        0 min,  0.898 sec
     gradient                   ...        0 min,  0.127 sec
 * total energy  :   -27.7620026 Eh     change       -0.2545765E-03 Eh
   gradient norm :     0.0092940 Eh/α   predicted    -0.1985537E-03 ( -22.01%)
   displ. norm   :     0.2201339 α      lambda       -0.3415123E-03
   maximum displ.:     0.1237724 α      in ANC's #9, #5, #2, ...

........................................................................
.............................. CYCLE   48 ..............................
........................................................................

 iter      E             dE          RMSdq      gap      omega  full diag
   1    -28.1154911 -0.281155E+02  0.103E-01    1.91       0.0  T
   2    -28.1154913 -0.195966E-06  0.629E-02    1.91       1.0  T
   3    -28.1154708  0.205033E-04  0.465E-02    1.91       1.0  T
   4    -28.1154944 -0.236258E-04  0.619E-03    1.91       3.9  T
   5    -28.1154941  0.270380E-06  0.545E-03    1.91       4.5  T
   6    -28.1154947 -0.616596E-06  0.774E-04    1.91      31.3  T
   7    -28.1154947 -0.264382E-08  0.463E-04    1.91      52.4  T
     SCC iter.                  ...        0 min,  0.873 sec
     gradient                   ...        0 min,  0.039 sec
 * total energy  :   -27.7622511 Eh     change       -0.2485390E-03 Eh
   gradient norm :     0.0074249 Eh/α   predicted    -0.1790288E-03 ( -27.97%)
   displ. norm   :     0.2842571 α      lambda       -0.3101170E-03
   maximum displ.:     0.1355315 α      in ANC's #9, #2, #8, ...

........................................................................
.............................. CYCLE   49 ..............................
........................................................................

 iter      E             dE          RMSdq      gap      omega  full diag
   1    -28.1151280 -0.281151E+02  0.147E-01    1.94       0.0  T
   2    -28.1151280  0.680708E-07  0.878E-02    1.94       1.0  T
   3    -28.1150907  0.373017E-04  0.417E-02    1.94       1.0  T
   4    -28.1151301 -0.394159E-04  0.460E-03    1.94       5.3  T
   5    -28.1151302 -0.142329E-06  0.167E-03    1.94      14.5  T
   6    -28.1151302 -0.249009E-07  0.636E-04    1.94      38.1  T
   7    -28.1151303 -0.189243E-08  0.311E-04    1.94      77.9  T
     SCC iter.                  ...        0 min,  0.721 sec
     gradient                   ...        0 min,  0.056 sec
 * total energy  :   -27.7624744 Eh     change       -0.2232964E-03 Eh
   gradient norm :     0.0093214 Eh/α   predicted    -0.1675888E-03 ( -24.95%)
   displ. norm   :     0.2699624 α      lambda       -0.3898249E-03
   maximum displ.:     0.1346622 α      in ANC's #8, #2, #9, ...

........................................................................
.............................. CYCLE   50 ..............................
........................................................................

 iter      E             dE          RMSdq      gap      omega  full diag
   1    -28.1184082 -0.281184E+02  0.153E-01    1.97       0.0  T
   2    -28.1184118 -0.364637E-05  0.873E-02    1.97       1.0  T
   3    -28.1183756  0.362312E-04  0.616E-02    1.97       1.0  T
   4    -28.1184181 -0.425154E-04  0.127E-02    1.97       1.9  T
   5    -28.1184182 -0.137236E-06  0.886E-03    1.97       2.7  T
   6    -28.1184195 -0.126473E-05  0.299E-03    1.97       8.1  T
   7    -28.1184196 -0.111921E-06  0.610E-04    1.97      39.8  T
   8    -28.1184196 -0.108053E-08  0.341E-04    1.97      71.2  T
     SCC iter.                  ...        0 min,  1.414 sec
     gradient                   ...        0 min,  0.002 sec
 * total energy  :   -27.7626917 Eh     change       -0.2173069E-03 Eh
   gradient norm :     0.0097195 Eh/α   predicted    -0.2091169E-03 (  -3.77%)
   displ. norm   :     0.3933345 α      lambda       -0.3059397E-03
   maximum displ.:     0.2036061 α      in ANC's #8, #2, #9, ...

........................................................................
.............................. CYCLE   51 ..............................
........................................................................

 iter      E             dE          RMSdq      gap      omega  full diag
   1    -28.1133464 -0.281133E+02  0.212E-01    1.98       0.0  T
   2    -28.1133508 -0.434169E-05  0.126E-01    1.98       1.0  T
   3    -28.1132837  0.670297E-04  0.578E-02    1.98       1.0  T
   4    -28.1133528 -0.691073E-04  0.132E-02    1.98       1.8  T
   5    -28.1133558 -0.291397E-05  0.371E-03    1.98       6.5  T
   6    -28.1133558 -0.426809E-07  0.110E-03    1.98      22.0  T
   7    -28.1133558 -0.102318E-07  0.496E-04    1.98      48.9  T
   8    -28.1133558  0.419007E-10  0.301E-04    1.98      80.6  T
     SCC iter.                  ...        0 min,  0.926 sec
     gradient                   ...        0 min,  0.149 sec
 * total energy  :   -27.7627581 Eh     change       -0.6644701E-04 Eh
   gradient norm :     0.0141324 Eh/α   predicted    -0.1766329E-03 ( 165.83%)
   displ. norm   :     0.1016272 α      lambda       -0.3812130E-03
   maximum displ.:     0.0768940 α      in ANC's #9, #5, #8, ...

........................................................................
.............................. CYCLE   52 ..............................
........................................................................

 iter      E             dE          RMSdq      gap      omega  full diag
   1    -28.1164591 -0.281165E+02  0.774E-02    1.97       0.0  T
   2    -28.1164642 -0.510280E-05  0.421E-02    1.97       1.0  T
   3    -28.1164539  0.102920E-04  0.273E-02    1.97       1.0  T
   4    -28.1164648 -0.108582E-04  0.119E-02    1.97       2.0  T
   5    -28.1164668 -0.202688E-05  0.358E-03    1.97       6.8  T
   6    -28.1164669 -0.537807E-07  0.167E-03    1.97      14.5  T
   7    -28.1164669 -0.165405E-07  0.755E-04    1.97      32.1  T
   8    -28.1164669 -0.298133E-08  0.354E-04    1.97      68.6  T
     SCC iter.                  ...        0 min,  0.965 sec
     gradient                   ...        0 min,  0.153 sec
 * total energy  :   -27.7629178 Eh     change       -0.1596166E-03 Eh
   gradient norm :     0.0075056 Eh/α   predicted    -0.1925736E-03 (  20.65%)
   displ. norm   :     0.0936297 α      lambda       -0.2279686E-03
   maximum displ.:     0.0602503 α      in ANC's #3, #8, #7, ...

........................................................................
.............................. CYCLE   53 ..............................
........................................................................

 iter      E             dE          RMSdq      gap      omega  full diag
   1    -28.1186138 -0.281186E+02  0.757E-02    1.95       0.0  T
   2    -28.1186136  0.222225E-06  0.448E-02    1.95       1.0  T
   3    -28.1185914  0.221729E-04  0.350E-02    1.95       1.0  T
   4    -28.1186162 -0.247923E-04  0.628E-03    1.95       3.9  T
   5    -28.1186166 -0.380263E-06  0.331E-03    1.95       7.3  T
   6    -28.1186167 -0.720206E-07  0.107E-03    1.95      22.7  T
   7    -28.1186167 -0.114896E-07  0.267E-04    1.95      90.7  T
   8    -28.1186167 -0.390365E-09  0.131E-04    1.95     185.4  T
     SCC iter.                  ...        0 min,  1.184 sec
     gradient                   ...        0 min,  0.264 sec
 * total energy  :   -27.7630066 Eh     change       -0.8887808E-04 Eh
   gradient norm :     0.0056184 Eh/α   predicted    -0.1149830E-03 (  29.37%)
   displ. norm   :     0.2076165 α      lambda       -0.1285305E-03
   maximum displ.:     0.1118360 α      in ANC's #2, #8, #1, ...

........................................................................
.............................. CYCLE   54 ..............................
........................................................................

 iter      E             dE          RMSdq      gap      omega  full diag
   1    -28.1161764 -0.281162E+02  0.124E-01    1.95       0.0  T
   2    -28.1161787 -0.230508E-05  0.714E-02    1.95       1.0  T
   3    -28.1161774  0.133408E-05  0.157E-02    1.95       1.5  T
   4    -28.1161790 -0.161322E-05  0.633E-03    1.95       3.8  T
   5    -28.1161791 -0.124584E-06  0.375E-03    1.95       6.5  T
   6    -28.1161792 -0.130484E-06  0.797E-04    1.95      30.4  T
   7    -28.1161792 -0.901447E-08  0.431E-04    1.95      56.3  T
     SCC iter.                  ...        0 min,  1.724 sec
     gradient                   ...        0 min,  0.172 sec
 * total energy  :   -27.7630936 Eh     change       -0.8697262E-04 Eh
   gradient norm :     0.0049908 Eh/α   predicted    -0.6703372E-04 ( -22.93%)
   displ. norm   :     0.1384780 α      lambda       -0.5836128E-04
   maximum displ.:     0.0730018 α      in ANC's #2, #8, #1, ...

........................................................................
.............................. CYCLE   55 ..............................
........................................................................

 iter      E             dE          RMSdq      gap      omega  full diag
   1    -28.1152769 -0.281153E+02  0.876E-02    1.96       0.0  T
   2    -28.1152777 -0.805020E-06  0.509E-02    1.96       1.0  T
   3    -28.1152672  0.105297E-04  0.275E-02    1.96       1.0  T
   4    -28.1152786 -0.114061E-04  0.616E-03    1.96       3.9  T
   5    -28.1152785  0.557048E-07  0.418E-03    1.96       5.8  T
   6    -28.1152788 -0.288391E-06  0.123E-03    1.96      19.7  T
   7    -28.1152788 -0.180457E-07  0.267E-04    1.96      90.9  T
   8    -28.1152788 -0.290569E-09  0.127E-04    1.96     190.7  T
     SCC iter.                  ...        0 min,  1.036 sec
     gradient                   ...        0 min,  0.152 sec
 * total energy  :   -27.7631321 Eh     change       -0.3846714E-04 Eh
   gradient norm :     0.0046580 Eh/α   predicted    -0.2973974E-04 ( -22.69%)
   displ. norm   :     0.0865222 α      lambda       -0.4831490E-04
   maximum displ.:     0.0440752 α      in ANC's #1, #7, #4, ...

........................................................................
.............................. CYCLE   56 ..............................
........................................................................

 iter      E             dE          RMSdq      gap      omega  full diag
   1    -28.1159844 -0.281160E+02  0.550E-02    1.96       0.0  T
   2    -28.1159840  0.396816E-06  0.335E-02    1.96       1.0  T
   3    -28.1159717  0.122731E-04  0.287E-02    1.96       1.0  T
   4    -28.1159864 -0.146714E-04  0.489E-03    1.96       5.0  T
   5    -28.1159863  0.500842E-07  0.354E-03    1.96       6.9  T
   6    -28.1159865 -0.176541E-06  0.487E-04    1.96      49.8  T
   7    -28.1159865 -0.182789E-08  0.195E-04    1.96     124.6  T
     SCC iter.                  ...        0 min,  0.739 sec
     gradient                   ...        0 min,  0.158 sec
 * total energy  :   -27.7631668 Eh     change       -0.3468275E-04 Eh
   gradient norm :     0.0032042 Eh/α   predicted    -0.2433738E-04 ( -29.83%)
   displ. norm   :     0.1384511 α      lambda       -0.4286928E-04
   maximum displ.:     0.0687378 α      in ANC's #1, #8, #7, ...

........................................................................
.............................. CYCLE   57 ..............................
........................................................................

 iter      E             dE          RMSdq      gap      omega  full diag
   1    -28.1162638 -0.281163E+02  0.766E-02    1.97       0.0  T
   2    -28.1162639 -0.610831E-07  0.451E-02    1.97       1.0  T
   3    -28.1162477  0.161820E-04  0.307E-02    1.97       1.0  T
   4    -28.1162653 -0.175995E-04  0.500E-03    1.97       4.8  T
   5    -28.1162651  0.139949E-06  0.384E-03    1.97       6.3  T
   6    -28.1162654 -0.226756E-06  0.469E-04    1.97      51.7  T
   7    -28.1162654 -0.242656E-08  0.203E-04    1.97     119.7  T
     SCC iter.                  ...        0 min,  1.621 sec
     gradient                   ...        0 min,  0.148 sec
 * total energy  :   -27.7631957 Eh     change       -0.2890326E-04 Eh
   gradient norm :     0.0026361 Eh/α   predicted    -0.2184530E-04 ( -24.42%)
   displ. norm   :     0.0943350 α      lambda       -0.3375245E-04
   maximum displ.:     0.0507103 α      in ANC's #5, #1, #4, ...

........................................................................
.............................. CYCLE   58 ..............................
........................................................................

 iter      E             dE          RMSdq      gap      omega  full diag
   1    -28.1175568 -0.281176E+02  0.512E-02    1.97       0.0  T
   2    -28.1175571 -0.239486E-06  0.299E-02    1.97       1.0  T
   3    -28.1175569  0.236498E-06  0.482E-03    1.97       5.0  T
   4    -28.1175570 -0.168748E-06  0.297E-03    1.97       8.2  T
   5    -28.1175571 -0.106233E-06  0.111E-03    1.97      21.8  T
   6    -28.1175571 -0.219585E-07  0.471E-04    1.97      51.5  T
   7    -28.1175572 -0.352014E-08  0.129E-04    1.97     188.5  T
     SCC iter.                  ...        0 min,  2.924 sec
     gradient                   ...        0 min,  0.129 sec
 * total energy  :   -27.7632166 Eh     change       -0.2097657E-04 Eh
   gradient norm :     0.0031375 Eh/α   predicted    -0.1702815E-04 ( -18.82%)
   displ. norm   :     0.1528226 α      lambda       -0.3011430E-04
   maximum displ.:     0.0767763 α      in ANC's #1, #8, #5, ...

........................................................................
.............................. CYCLE   59 ..............................
........................................................................

 iter      E             dE          RMSdq      gap      omega  full diag
   1    -28.1171248 -0.281171E+02  0.839E-02    1.98       0.0  T
   2    -28.1171252 -0.432166E-06  0.496E-02    1.98       1.0  T
   3    -28.1171181  0.718695E-05  0.214E-02    1.98       1.1  T
   4    -28.1171255 -0.748242E-05  0.481E-03    1.98       5.0  T
   5    -28.1171258 -0.293208E-06  0.220E-03    1.98      11.0  T
   6    -28.1171259 -0.600387E-07  0.866E-04    1.98      28.0  T
   7    -28.1171259 -0.736058E-08  0.338E-04    1.98      71.8  T
     SCC iter.                  ...        0 min,  1.704 sec
     gradient                   ...        0 min,  0.230 sec
 * total energy  :   -27.7632324 Eh     change       -0.1578194E-04 Eh
   gradient norm :     0.0048439 Eh/α   predicted    -0.1540830E-04 (  -2.37%)
   displ. norm   :     0.0485998 α      lambda       -0.1989230E-04
   maximum displ.:     0.0357928 α      in ANC's #5, #9, #8, ...

........................................................................
.............................. CYCLE   60 ..............................
........................................................................

 iter      E             dE          RMSdq      gap      omega  full diag
   1    -28.1175640 -0.281176E+02  0.247E-02    1.97       0.0  T
   2    -28.1175631  0.916227E-06  0.191E-02    1.97       1.3  T
   3    -28.1175649 -0.179352E-05  0.105E-02    1.97       2.3  T
   4    -28.1175660 -0.106560E-05  0.371E-03    1.97       6.5  T
   5    -28.1175661 -0.137358E-06  0.174E-03    1.97      13.9  T
   6    -28.1175661 -0.131770E-07  0.429E-04    1.97      56.5  T
   7    -28.1175661 -0.204128E-08  0.170E-04    1.97     142.5  T
     SCC iter.                  ...        0 min,  0.876 sec
     gradient                   ...        0 min,  0.228 sec
 * total energy  :   -27.7632474 Eh     change       -0.1497584E-04 Eh
   gradient norm :     0.0017281 Eh/α   predicted    -0.9970668E-05 ( -33.42%)
   displ. norm   :     0.1291377 α      lambda       -0.2173770E-04
   maximum displ.:     0.1018608 α      in ANC's #5, #7, #1, ...

........................................................................
.............................. CYCLE   61 ..............................
........................................................................

 iter      E             dE          RMSdq      gap      omega  full diag
   1    -28.1180894 -0.281181E+02  0.606E-02    1.97       0.0  T
   2    -28.1180863  0.302470E-05  0.432E-02    1.97       1.0  T
   3    -28.1180892 -0.290896E-05  0.282E-02    1.97       1.0  T
   4    -28.1180980 -0.873033E-05  0.865E-03    1.97       2.8  T
   5    -28.1180987 -0.739833E-06  0.417E-03    1.97       5.8  T
   6    -28.1180988 -0.106327E-06  0.134E-03    1.97      18.1  T
   7    -28.1180988 -0.185680E-07  0.414E-04    1.97      58.5  T
   8    -28.1180988 -0.507363E-09  0.255E-04    1.97      95.3  T
     SCC iter.                  ...        0 min,  1.848 sec
     gradient                   ...        0 min,  0.208 sec
 * total energy  :   -27.7632628 Eh     change       -0.1543379E-04 Eh
   gradient norm :     0.0020268 Eh/α   predicted    -0.1094800E-04 ( -29.06%)
   displ. norm   :     0.0470506 α      lambda       -0.9692631E-05
   maximum displ.:     0.0266616 α      in ANC's #5, #8, #1, ...

........................................................................
.............................. CYCLE   62 ..............................
........................................................................

 iter      E             dE          RMSdq      gap      omega  full diag
   1    -28.1173831 -0.281174E+02  0.241E-02    1.97       0.0  T
   2    -28.1173832 -0.492206E-07  0.145E-02    1.97       1.7  T
   3    -28.1173817  0.142836E-05  0.101E-02    1.97       2.4  T
   4    -28.1173833 -0.156731E-05  0.165E-03    1.97      14.7  T
   5    -28.1173833 -0.309863E-07  0.805E-04    1.97      30.1  T
   6    -28.1173834 -0.898339E-08  0.344E-04    1.97      70.6  T
     SCC iter.                  ...        0 min,  0.732 sec
     gradient                   ...        0 min,  0.159 sec
 * total energy  :   -27.7632686 Eh     change       -0.5776207E-05 Eh
   gradient norm :     0.0019143 Eh/α   predicted    -0.4856902E-05 ( -15.92%)
   displ. norm   :     0.0440122 α      lambda       -0.8911417E-05
   maximum displ.:     0.0286071 α      in ANC's #5, #2, #9, ...

........................................................................
.............................. CYCLE   63 ..............................
........................................................................

 iter      E             dE          RMSdq      gap      omega  full diag
   1    -28.1174397 -0.281174E+02  0.242E-02    1.96       0.0  T
   2    -28.1174393  0.469387E-06  0.202E-02    1.96       1.2  T
   3    -28.1174415 -0.223592E-05  0.977E-03    1.96       2.5  T
   4    -28.1174416 -0.838359E-07  0.399E-03    1.96       6.1  T
   5    -28.1174418 -0.256042E-06  0.142E-03    1.96      17.0  T
   6    -28.1174418 -0.200852E-07  0.365E-04    1.96      66.4  T
   7    -28.1174418 -0.138013E-08  0.100E-04    1.96     241.8  T
     SCC iter.                  ...        0 min,  1.544 sec
     gradient                   ...        0 min,  0.232 sec
 * total energy  :   -27.7632742 Eh     change       -0.5604467E-05 Eh
   gradient norm :     0.0016963 Eh/α   predicted    -0.4457786E-05 ( -20.46%)
   displ. norm   :     0.0308301 α      lambda       -0.5487932E-05
   maximum displ.:     0.0265950 α      in ANC's #5, #1, #6, ...

........................................................................
.............................. CYCLE   64 ..............................
........................................................................

 iter      E             dE          RMSdq      gap      omega  full diag
   1    -28.1172282 -0.281172E+02  0.144E-02    1.97       0.0  T
   2    -28.1172283 -0.470980E-07  0.969E-03    1.97       2.5  T
   3    -28.1172283 -0.445424E-07  0.618E-03    1.97       3.9  T
   4    -28.1172286 -0.232971E-06  0.133E-03    1.97      18.2  T
   5    -28.1172285  0.166212E-07  0.107E-03    1.97      22.6  T
   6    -28.1172286 -0.227272E-07  0.257E-04    1.97      94.3  T
   7    -28.1172286 -0.943960E-09  0.922E-05    1.97     263.1  T
     SCC iter.                  ...        0 min,  1.846 sec
     gradient                   ...        0 min,  0.161 sec
 * total energy  :   -27.7632779 Eh     change       -0.3693217E-05 Eh
   gradient norm :     0.0015119 Eh/α   predicted    -0.2745585E-05 ( -25.66%)
   displ. norm   :     0.0212761 α      lambda       -0.2918847E-05
   maximum displ.:     0.0155590 α      in ANC's #5, #2, #7, ...

........................................................................
.............................. CYCLE   65 ..............................
........................................................................

 iter      E             dE          RMSdq      gap      omega  full diag
   1    -28.1174117 -0.281174E+02  0.813E-03    1.97       0.0  T
   2    -28.1174117  0.528201E-07  0.702E-03    1.97       3.5  T
   3    -28.1174120 -0.282728E-06  0.331E-03    1.97       7.3  T
   4    -28.1174120  0.261880E-08  0.136E-03    1.97      17.8  T
   5    -28.1174120 -0.309510E-07  0.488E-04    1.97      49.7  T
   6    -28.1174120 -0.314943E-08  0.136E-04    1.97     177.7  T
     SCC iter.                  ...        0 min,  0.993 sec
     gradient                   ...        0 min,  0.205 sec
 * total energy  :   -27.7632813 Eh     change       -0.3397044E-05 Eh
   gradient norm :     0.0010298 Eh/α   predicted    -0.1459212E-05 ( -57.04%)
   displ. norm   :     0.0551463 α      lambda       -0.5023926E-05
   maximum displ.:     0.0408747 α      in ANC's #5, #2, #1, ...

........................................................................
.............................. CYCLE   66 ..............................
........................................................................

 iter      E             dE          RMSdq      gap      omega  full diag
   1    -28.1175284 -0.281175E+02  0.138E-02    1.97       0.0  T
   2    -28.1175284  0.294134E-07  0.114E-02    1.97       2.1  T
   3    -28.1175290 -0.625937E-06  0.548E-03    1.97       4.4  T
   4    -28.1175290 -0.150300E-07  0.158E-03    1.97      15.4  T
   5    -28.1175290 -0.364145E-07  0.786E-04    1.97      30.8  T
   6    -28.1175290 -0.858493E-08  0.201E-04    1.97     120.9  T
     SCC iter.                  ...        0 min,  0.727 sec
     gradient                   ...        0 min,  0.068 sec
 * total energy  :   -27.7632862 Eh     change       -0.4924357E-05 Eh
   gradient norm :     0.0010782 Eh/α   predicted    -0.2514721E-05 ( -48.93%)
   displ. norm   :     0.0736686 α      lambda       -0.4682242E-05
   maximum displ.:     0.0568288 α      in ANC's #5, #2, #1, ...
 * RMSD in coord.:     0.6110604 α      energy gain  -0.3538959E-02 Eh

generating ANC from exact Hessian ...
Using Lindh-Hessian (1995)
 Shifting diagonal of input Hessian by    1.1682283810220743E-002
 Lowest  eigenvalues of input Hessian
    0.010000    0.011463    0.000000    0.000000    0.000000    0.000000
    0.000000    0.000000    0.011771    0.012222    0.012452    0.015494
    0.016132    0.018382    0.021602    0.027442    0.033383    0.053979
 Highest eigenvalues
    1.644907    1.987928    2.195181    3.580342    4.223586    7.181508


........................................................................
.............................. CYCLE   67 ..............................
........................................................................

 iter      E             dE          RMSdq      gap      omega  full diag
   1    -28.1174428 -0.281174E+02  0.145E-02    1.97       0.0  T
   2    -28.1174428 -0.842876E-07  0.849E-03    1.97       2.9  T
   3    -28.1174427  0.182521E-06  0.624E-03    1.97       3.9  T
   4    -28.1174430 -0.360410E-06  0.195E-03    1.97      12.4  T
   5    -28.1174431 -0.478905E-07  0.917E-04    1.97      26.4  T
   6    -28.1174431 -0.739237E-08  0.434E-04    1.97      55.9  T
     SCC iter.                  ...        0 min,  0.935 sec
     gradient                   ...        0 min,  0.242 sec
 * total energy  :   -27.7632909 Eh     change       -0.4677987E-05 Eh
   gradient norm :     0.0011170 Eh/α   predicted     0.0000000E+00 (-100.00%)
   displ. norm   :     0.0131862 α      lambda       -0.2333472E-05
   maximum displ.:     0.0090536 α      in ANC's #1, #5, #4, ...

........................................................................
.............................. CYCLE   68 ..............................
........................................................................

 iter      E             dE          RMSdq      gap      omega  full diag
   1    -28.1173236 -0.281173E+02  0.116E-02    1.97       0.0  T
   2    -28.1173235  0.837151E-07  0.814E-03    1.97       3.0  T
   3    -28.1173234  0.939978E-07  0.584E-03    1.97       4.2  T
   4    -28.1173238 -0.380132E-06  0.135E-03    1.97      18.0  T
   5    -28.1173238 -0.236791E-07  0.464E-04    1.97      52.3  T
   6    -28.1173238 -0.237927E-08  0.139E-04    1.97     174.7  T
     SCC iter.                  ...        0 min,  1.410 sec
     gradient                   ...        0 min,  0.231 sec
 * total energy  :   -27.7632930 Eh     change       -0.2110125E-05 Eh
   gradient norm :     0.0004222 Eh/α   predicted    -0.1166120E-05 ( -44.74%)
   displ. norm   :     0.0184115 α      lambda       -0.1322547E-05
   maximum displ.:     0.0116109 α      in ANC's #1, #5, #4, ...

   *** GEOMETRY OPTIMIZATION CONVERGED AFTER 68 ITERATIONS ***

------------------------------------------------------------------------
 total energy gain   :        -1.5109655 Eh     -948.1451 kcal/mol
 total RMSD          :         2.1541570 a0        1.1399 Å
 total power (kW/mol):       -58.3388133 (step)  -14.5204 (real)
------------------------------------------------------------------------

 ANCopt (total)                0 d,  0 h,  4 min, 33.204 sec
 optimizer setup                ...        0 min,  0.004 sec (  0.001%)
 model hessian                  ...        0 min,  0.010 sec (  0.004%)
 ANC generation                 ...        0 min,  0.002 sec (  0.001%)
 coordinate transformation      ...        0 min,  0.001 sec (  0.000%)
 single point calculation       ...        4 min, 31.655 sec ( 99.433%)
 optimization log               ...        0 min,  0.006 sec (  0.002%)
 hessian update                 ...        0 min,  1.459 sec (  0.534%)
 rational function              ...        0 min,  0.059 sec (  0.021%)

================
 final structure:
================
17
 xtb: 6.7.1 (edcfbbe)
O            0.59009034785678        1.45676259242632        3.14645287320508
S            0.19574373115005        0.57607132053080        2.04147121449479
N            0.98469017316474       -0.76650717014828        0.34252639867207
C            2.36372179218860       -0.38374109025994        0.33081601870943
N            0.63116743651227       -1.85914483105892       -0.27058598266639
C           -0.42890362886518       -1.71649420195657       -1.00607225002980
C           -0.98132486243063       -0.40079215511580       -1.07560992483426
C           -0.35944601959133        0.46726776833587       -0.26512036748693
C           -0.25995454357653        1.44441682363467        0.67947898728355
H            2.92697935034160       -1.06196625722407        0.97587220430689
H            2.78529416457545       -0.42831642310528       -0.67756223590611
H            2.45796680283472        0.62790109580209        0.72581354168086
H           -0.85830621969530       -2.57351109317762       -1.49173555526838
H           -1.83987247464732       -0.19187153655049       -1.68593880628247
H           -3.74087044785340        2.33191197138893        0.10272067373171
H           -0.51279409958435        2.48530757392704        0.61573644229873
H           -3.14891138238361        1.83528166254942        0.19483126810847

 Bond Distances (Angstroems)
 ---------------------------
O1-S2=1.4670         S2-O1=1.4670         S2-C9=1.6783         N3-C4=1.4312         N3-N5=1.3018         C4-N3=1.4312         
C4-H10=1.0924        C4-H11=1.0939        C4-H12=1.0901        N5-N3=1.3018         N5-C6=1.2981         C6-N5=1.2981         
C6-C7=1.4287         C6-H13=1.0746        C7-C6=1.4287         C7-C8=1.3406         C7-H14=1.0739        C8-C7=1.3406         
C8-C9=1.3627         C9-S2=1.6783         C9-C8=1.3627         C9-H16=1.0731        H10-C4=1.0924        H11-C4=1.0939        
H12-C4=1.0901        H13-C6=1.0746        H14-C7=1.0739        H15-H17=0.7782       H16-C9=1.0731        H17-H15=0.7782       
 H  H  Rav=0.7782 sigma=0.0000  Rmin=0.7782  Rmax=0.7782     1
 C  H  Rav=1.0830 sigma=0.0092  Rmin=1.0731  Rmax=1.0939     6
 C  C  Rav=1.3773 sigma=0.0374  Rmin=1.3406  Rmax=1.4287     3
 N  C  Rav=1.3647 sigma=0.0666  Rmin=1.2981  Rmax=1.4312     2
 N  N  Rav=1.3018 sigma=0.0000  Rmin=1.3018  Rmax=1.3018     1
 S  C  Rav=1.6783 sigma=0.0000  Rmin=1.6783  Rmax=1.6783     1
 S  O  Rav=1.4670 sigma=0.0000  Rmin=1.4670  Rmax=1.4670     1

 selected bond angles (degree)
 --------------------
C9-S2-O1=111.94                N5-N3-C4=118.83                H10-C4-N3=109.02               H11-C4-N3=111.59               
H11-C4-H10=108.68              H12-C4-N3=109.18               H12-C4-H10=108.52              H12-C4-H11=109.79              
C6-N5-N3=113.35                C7-C6-N5=116.39                H13-C6-N5=119.65               H13-C6-C7=123.92               
C8-C7-C6=112.80                H14-C7-C6=121.06               H14-C7-C8=126.05               C9-C8-C7=156.53                
C8-C9-S2=102.20                H16-C9-S2=127.88               H16-C9-C8=129.58               

 selected dihedral angles (degree)
 ---------------------------------
H10-C4-N3-N5=288.31           H11-C4-N3-N5= 48.36           H12-C4-N3-N5=169.91           C6-N5-N3-C4=225.70            
C7-C6-N5-N3=  3.03            H13-C6-N5-N3=185.14           C8-C7-C6-N5=354.91            C8-C7-C6-H13=172.69           
H14-C7-C6-N5=178.11           H14-C7-C6-H13=355.90          C9-C8-C7-C6=228.57            C9-C8-C7-H14= 45.18           
C8-C9-S2-O1=170.15            H16-C9-S2-O1=343.99           S2-C9-C8-C7=103.02            H16-C9-C8-C7=289.32           
           -------------------------------------------------
          |                Final Singlepoint                |
           -------------------------------------------------

          ...................................................
          :                      SETUP                      :
          :.................................................:
          :  # basis functions                  50          :
          :  # atomic orbitals                  49          :
          :  # shells                           27          :
          :  # electrons                        50          :
          :  max. iterations                   250          :
          :  Hamiltonian                  GFN2-xTB          :
          :  restarted?                      false          :
          :  GBSA solvation                  false          :
          :  PC potential                    false          :
          :  electronic temp.          300.0000000     K    :
          :  accuracy                    1.0000000          :
          :  -> integral cutoff          0.2500000E+02      :
          :  -> integral neglect         0.1000000E-07      :
          :  -> SCF convergence          0.1000000E-05 Eh   :
          :  -> wf. convergence          0.1000000E-03 e    :
          :  Broyden damping             0.4000000          :
          :  net charge                          0          :
          :  unpaired electrons                  0          :
          ...................................................

 iter      E             dE          RMSdq      gap      omega  full diag
   1    -28.1173238 -0.281173E+02  0.531E-05    1.97       0.0  T
   2    -28.1173238 -0.877876E-11  0.358E-05    1.97     677.4  T
   3    -28.1173238 -0.110916E-10  0.210E-05    1.97    1154.3  T

   *** convergence criteria satisfied after 3 iterations ***

         #    Occupation            Energy/Eh            Energy/eV
      -------------------------------------------------------------
         1        2.0000           -0.7581067             -20.6291
       ...           ...                  ...                  ...
        19        2.0000           -0.4730764             -12.8731
        20        2.0000           -0.4678433             -12.7307
        21        2.0000           -0.4481455             -12.1947
        22        2.0000           -0.4220415             -11.4843
        23        2.0000           -0.4014391             -10.9237
        24        2.0000           -0.3963651             -10.7856
        25        2.0000           -0.3688818             -10.0378 (HOMO)
        26                         -0.2965756              -8.0702 (LUMO)
        27                         -0.2629649              -7.1556
        28                         -0.2197922              -5.9809
        29                         -0.1704446              -4.6380
        30                         -0.1351355              -3.6772
       ...                                ...                  ...
        49                          0.9692036              26.3734
      -------------------------------------------------------------
                  HL-Gap            0.0723061 Eh            1.9675 eV
             Fermi-level           -0.3327287 Eh           -9.0540 eV

 SCC (total)                   0 d,  0 h,  0 min,  0.718 sec
 SCC setup                      ...        0 min,  0.023 sec (  3.139%)
 Dispersion                     ...        0 min,  0.066 sec (  9.152%)
 classical contributions        ...        0 min,  0.024 sec (  3.334%)
 integral evaluation            ...        0 min,  0.090 sec ( 12.583%)
 iterations                     ...        0 min,  0.372 sec ( 51.872%)
 molecular gradient             ...        0 min,  0.143 sec ( 19.903%)
 printout                       ...        0 min,  0.000 sec (  0.016%)

         :::::::::::::::::::::::::::::::::::::::::::::::::::::
         ::                     SUMMARY                     ::
         :::::::::::::::::::::::::::::::::::::::::::::::::::::
         :: total energy             -27.763293018539 Eh    ::
         :: gradient norm              0.000434786651 Eh/a0 ::
         :: HOMO-LUMO gap              1.967549875812 eV    ::
         ::.................................................::
         :: SCC energy               -28.117264299683 Eh    ::
         :: -> isotropic ES            0.035976213490 Eh    ::
         :: -> anisotropic ES          0.009829360762 Eh    ::
         :: -> anisotropic XC          0.025263204926 Eh    ::
         :: -> dispersion             -0.015055648469 Eh    ::
         :: repulsion energy           0.352781040801 Eh    ::
         :: add. restraining           0.001190240343 Eh    ::
         :: total charge              -0.000000000000 e     ::
         :::::::::::::::::::::::::::::::::::::::::::::::::::::

           -------------------------------------------------
          |                Property Printout                |
           -------------------------------------------------

    * Orbital Energies and Occupations

         #    Occupation            Energy/Eh            Energy/eV
      -------------------------------------------------------------
         1        2.0000           -0.7581067             -20.6291
       ...           ...                  ...                  ...
        13        2.0000           -0.5195111             -14.1366
        14        2.0000           -0.5134754             -13.9724
        15        2.0000           -0.5029361             -13.6856
        16        2.0000           -0.4956532             -13.4874
        17        2.0000           -0.4862399             -13.2313
        18        2.0000           -0.4763677             -12.9626
        19        2.0000           -0.4730764             -12.8731
        20        2.0000           -0.4678433             -12.7307
        21        2.0000           -0.4481455             -12.1947
        22        2.0000           -0.4220415             -11.4843
        23        2.0000           -0.4014391             -10.9237
        24        2.0000           -0.3963651             -10.7856
        25        2.0000           -0.3688818             -10.0378 (HOMO)
        26                         -0.2965756              -8.0702 (LUMO)
        27                         -0.2629649              -7.1556
        28                         -0.2197922              -5.9809
        29                         -0.1704446              -4.6380
        30                         -0.1351355              -3.6772
        31                         -0.1173338              -3.1928
        32                          0.0082684               0.2250
        33                          0.0577616               1.5718
        34                          0.0712843               1.9397
        35                          0.0996238               2.7109
        36                          0.1151770               3.1341
       ...                                ...                  ...
        49                          0.9692036              26.3734
      -------------------------------------------------------------
                  HL-Gap            0.0723061 Eh            1.9675 eV
             Fermi-level           -0.3327287 Eh           -9.0540 eV

     #   Z          covCN         q      C6AA      α(0)
     1   8 O        0.859    -0.436    22.412     6.347
     2  16 S        2.763     0.416   125.256    18.837
     3   7 N        2.954    -0.072    22.637     7.066
     4   6 C        3.699    -0.040    21.458     6.625
     5   7 N        1.923    -0.141    24.831     7.389
     6   6 C        2.966     0.037    27.172     8.550
     7   6 C        2.909    -0.054    29.337     8.881
     8   6 C        2.976     0.008    27.839     8.655
     9   6 C        2.883    -0.083    30.066     8.989
    10   1 H        0.924     0.072     2.067     2.248
    11   1 H        0.924     0.053     2.285     2.364
    12   1 H        0.925     0.060     2.197     2.318
    13   1 H        0.926     0.049     2.336     2.390
    14   1 H        0.926     0.059     2.209     2.324
    15   1 H        0.809     0.002     3.070     2.751
    16   1 H        0.926     0.074     2.042     2.234
    17   1 H        0.809    -0.003     3.167     2.795

 Mol. C6AA /au·bohr⁶  :       4088.126982
 Mol. C8AA /au·bohr⁸  :     107340.007594
 Mol. α(0) /au        :        100.763858


Wiberg/Mayer (AO) data.
largest (>0.10) Wiberg bond orders for each atom

 ---------------------------------------------------------------------------
     #   Z sym  total        # sym  WBO       # sym  WBO       # sym  WBO
 ---------------------------------------------------------------------------
     1   8 O    2.127 --     2 S    1.814     9 C    0.165
     2  16 S    3.725 --     1 O    1.814     9 C    1.391     3 N    0.249
     3   7 N    3.496 --     5 N    1.292     4 C    1.014     8 C    0.667
                             2 S    0.249
     4   6 C    3.975 --     3 N    1.014    11 H    0.974    12 H    0.969
                            10 H    0.960
     5   7 N    3.188 --     6 C    1.548     3 N    1.292     8 C    0.175
     6   6 C    3.965 --     5 N    1.548     7 C    1.230    13 H    0.964
     7   6 C    3.983 --     8 C    1.589     6 C    1.230    14 H    0.943
     8   6 C    3.948 --     7 C    1.589     9 C    1.361     3 N    0.667
                             5 N    0.175
     9   6 C    3.961 --     2 S    1.391     8 C    1.361    16 H    0.947
                             1 O    0.165
    10   1 H    0.993 --     4 C    0.960
    11   1 H    0.997 --     4 C    0.974
    12   1 H    0.996 --     4 C    0.969
    13   1 H    0.997 --     6 C    0.964
    14   1 H    0.995 --     7 C    0.943
    15   1 H    1.000 --    17 H    0.997
    16   1 H    0.995 --     9 C    0.947
    17   1 H    1.000 --    15 H    0.997
 ---------------------------------------------------------------------------

Topologies differ in total number of bonds
Writing topology from bond orders to xtbtopo.mol

molecular dipole:
                 x           y           z       tot (Debye)
 q only:       -0.107      -0.444      -1.153
   full:       -0.252      -0.130      -1.453       3.762
molecular quadrupole (traceless):
                xx          xy          yy          xz          yz          zz
 q only:        8.841      -1.046       0.252      -1.417      -7.022      -9.093
  q+dip:        9.946      -1.398       1.587      -0.269      -6.502     -11.532
   full:       10.555      -0.796       0.214      -1.391      -7.186     -10.770

           -------------------------------------------------
          |                Geometry Summary                 |
           -------------------------------------------------

      molecular mass/u    :      144.1948042
   center of mass at/Å    :        0.2802963       0.0067445       0.6900791
  moments of inertia/u·Å² :        0.2175300E+03   0.4329939E+03   0.5649811E+03
rotational constants/cm⁻¹ :        0.7749567E-01   0.3893272E-01   0.2983752E-01

 * 15 selected distances

     #   Z          #   Z                                           value/Å
     1   8 O        2  16 S                                       1.4670076
     3   7 N        4   6 C                                       1.4312147
     3   7 N        5   7 N                                       1.3018228
     5   7 N        6   6 C                                       1.2980910
     6   6 C        7   6 C                                       1.4286626
     7   6 C        8   6 C                                       1.3405801
     2  16 S        9   6 C                                       1.6783052 (max)
     8   6 C        9   6 C                                       1.3627131
     4   6 C       10   1 H                                       1.0924038
     4   6 C       11   1 H                                       1.0938634
     4   6 C       12   1 H                                       1.0901033
     6   6 C       13   1 H                                       1.0745853
     7   6 C       14   1 H                                       1.0738964
     9   6 C       16   1 H                                       1.0730539
    15   1 H       17   1 H                                       0.7781656 (min)

 * 7 distinct bonds (by element types)

   Z      Z             #   av. dist./Å        max./Å        min./Å
   1 H    1 H           1     0.7781656     0.7781656     0.7781656
   1 H    6 C           6     1.0829844     1.0938634     1.0730539
   6 C    6 C           3     1.3773186     1.4286626     1.3405801
   6 C    7 N           2     1.3646529     1.4312147     1.2980910
   7 N    7 N           1     1.3018228     1.3018228     1.3018228
   6 C   16 S           1     1.6783052     1.6783052     1.6783052
   8 O   16 S           1     1.4670076     1.4670076     1.4670076


optimized geometry written to: xtbopt.xyz


           -------------------------------------------------
          | TOTAL ENERGY              -27.763293018539 Eh   |
          | GRADIENT NORM               0.000434786651 Eh/α |
          | HOMO-LUMO GAP               1.967549875812 eV   |
           -------------------------------------------------

------------------------------------------------------------------------
 * finished run on 2026/08/20 at 02:37:13.411     
------------------------------------------------------------------------
 total:
 * wall-time:     0 d,  0 h,  4 min, 41.958 sec
 *  cpu-time:     0 d,  0 h,  8 min,  2.395 sec
 * ratio c/w:     1.711 speedup
 SCF:
 * wall-time:     0 d,  0 h,  0 min,  7.703 sec
 *  cpu-time:     0 d,  0 h,  0 min,  8.689 sec
 * ratio c/w:     1.128 speedup
 ANC optimizer:
 * wall-time:     0 d,  0 h,  4 min, 33.948 sec
 *  cpu-time:     0 d,  0 h,  7 min, 53.238 sec
 * ratio c/w:     1.727 speedup

