17
 energy: -27.889159613580 gnorm: 0.000542891349 xtb: 6.7.1 (edcfbbe)
O            0.84184558873779        1.93481409657074        0.59005014322020
S            0.34894106429887        0.62423223941221        1.00057356342775
N            1.26892141597367       -0.62255939552954        0.16051178398107
C            2.63779803448812       -0.68878748314144        0.61416669054028
N            0.98190361445230       -1.27727348875116       -0.93744175802256
C           -0.18189833828204       -1.22671599755483       -1.47461794350591
C           -1.27341381133394       -0.42479539591069       -1.00455902206320
C           -1.18673940956880        0.38275770913393        0.05714139229248
C           -2.27020386716076        1.26200130729690        0.57502537609954
H            2.65809521388405       -0.93605107871194        1.67664079352748
H            3.15558035161403       -1.45776688114614        0.04540578337279
H            3.13676944954377        0.27162418018189        0.46390346747258
H           -0.30640250751692       -1.83499811146357       -2.35637020837260
H           -2.20222836021808       -0.48355744802253       -1.55803162151871
H           -2.51662838980457        0.99047547683316        1.60225832712499
H           -1.92571823685461        2.29594145935273        0.58188018435102
H           -3.16662181225255        1.19065781145008       -0.03653795192709
