      -----------------------------------------------------------      
     |                   =====================                   |     
     |                           x T B                           |     
     |                   =====================                   |     
     |                         S. Grimme                         |     
     |          Mulliken Center for Theoretical Chemistry        |     
     |                    University of Bonn                     |     
      -----------------------------------------------------------      

   * xtb version 6.7.1 (edcfbbe) compiled by 'conda@3ef47c1a292c' on 2024-11-25

   xtb is free software: you can redistribute it and/or modify it under
   the terms of the GNU Lesser General Public License as published by
   the Free Software Foundation, either version 3 of the License, or
   (at your option) any later version.
   
   xtb is distributed in the hope that it will be useful,
   but WITHOUT ANY WARRANTY; without even the implied warranty of
   MERCHANTABILITY or FITNESS FOR A PARTICULAR PURPOSE.  See the
   GNU Lesser General Public License for more details.
   
   Cite this work as:
   * C. Bannwarth, E. Caldeweyher, S. Ehlert, A. Hansen, P. Pracht,
     J. Seibert, S. Spicher, S. Grimme, WIREs Comput. Mol. Sci., 2020, 11,
     e01493. DOI: 10.1002/wcms.1493
   
   for GFN2-xTB:
   * C. Bannwarth, S. Ehlert and S. Grimme., J. Chem. Theory Comput., 2019,
     15, 1652-1671. DOI: 10.1021/acs.jctc.8b01176
   for GFN1-xTB:
   * S. Grimme, C. Bannwarth, P. Shushkov, J. Chem. Theory Comput., 2017,
     13, 1989-2009. DOI: 10.1021/acs.jctc.7b00118
   for GFN0-xTB:
   * P. Pracht, E. Caldeweyher, S. Ehlert, S. Grimme, ChemRxiv, 2019, preprint.
     DOI: 10.26434/chemrxiv.8326202.v1
   for GFN-FF:
   * S. Spicher and S. Grimme, Angew. Chem. Int. Ed., 2020, 59, 15665-15673.
     DOI: 10.1002/anie.202004239
   
   for ALPB and GBSA implicit solvation:
   * S. Ehlert, M. Stahn, S. Spicher, S. Grimme, J. Chem. Theory Comput.,
     2021, 17, 4250-4261. DOI: 10.1021/acs.jctc.1c00471
   
   for ddCOSMO and CPCM-X implicit solvation:
   * M. Stahn, S. Ehlert, S. Grimme, J. Phys. Chem. A,
     2023, XX, XXXX-XXXX. DOI: 10.1021/acs.jpca.3c04382
   
   for DFT-D4:
   * E. Caldeweyher, C. Bannwarth and S. Grimme, J. Chem. Phys., 2017,
     147, 034112. DOI: 10.1063/1.4993215
   * E. Caldeweyher, S. Ehlert, A. Hansen, H. Neugebauer, S. Spicher,
     C. Bannwarth and S. Grimme, J. Chem. Phys., 2019, 150, 154122.
     DOI: 10.1063/1.5090222
   * E. Caldeweyher, J.-M. Mewes, S. Ehlert and S. Grimme, Phys. Chem. Chem. Phys.
     2020, 22, 8499-8512. DOI: 10.1039/D0CP00502A
   
   for sTDA-xTB:
   * S. Grimme and C. Bannwarth, J. Chem. Phys., 2016, 145, 054103.
     DOI: 10.1063/1.4959605
   
   in the mass-spec context:
   * V. Asgeirsson, C. Bauer and S. Grimme, Chem. Sci., 2017, 8, 4879.
     DOI: 10.1039/c7sc00601b
   * J. Koopman and S. Grimme, ACS Omega 2019, 4, 12, 15120-15133.
     DOI: 10.1021/acsomega.9b02011
   
   for metadynamics refer to:
   * S. Grimme, J. Chem. Theory Comput., 2019, 155, 2847-2862
     DOI: 10.1021/acs.jctc.9b00143
   
   for SPH calculations refer to:
   * S. Spicher and S. Grimme, J. Chem. Theory Comput., 2021, 17, 1701-1714
     DOI: 10.1021/acs.jctc.0c01306
   
   for ONIOM refer to:
   * C. Plett, A. Katbashev, S. Ehlert, S. Grimme, M. Bursch,
     Phys. Chem. Chem. Phys., 2023, 25, 17860-17868. DOI: 10.1039/D3CP02178E
   
   for DIPRO refer to:
   * J. Kohn, N. Gildemeister, S. Grimme, D. Fazzi, A. Hansen,
     J. Chem. Phys., 2023, just accepted.
   
   for PTB refer to:
   * S. Grimme, M. Mueller, A. Hansen, J. Chem. Phys., 2023, 158, 124111.
     DOI: 10.1063/5.0137838
   
   with help from (in alphabetical order)
   P. Atkinson, C. Bannwarth, F. Bohle, G. Brandenburg, E. Caldeweyher
   M. Checinski, S. Dohm, S. Ehlert, S. Ehrlich, I. Gerasimov, C. Hölzer
   A. Katbashev, J. Kohn, J. Koopman, C. Lavigne, S. Lehtola, F. März, M. Müller,
   F. Musil, H. Neugebauer, J. Pisarek, C. Plett, P. Pracht, F. Pultar,
   J. Seibert, P. Shushkov, S. Spicher, M. Stahn, M. Steiner, T. Strunk,
   J. Stückrath, T. Rose, and J. Unsleber
   
 * started run on 2026/08/20 at 02:25:41.258     
   ID    Z sym.   atoms
    1    6 C      1, 2, 5-7
    2    7 N      3, 4
    3    1 H      8-15

           -------------------------------------------------
          |                Calculation Setup                |
           -------------------------------------------------

          program call               : xtb ../../../../B_pyrazole_raw.xyz --opt tight --gfn 2
          coordinate file            : ../../../../B_pyrazole_raw.xyz
          omp threads                :                    16


           -------------------------------------------------
          |                 G F N 2 - x T B                 |
           -------------------------------------------------

        Reference                      10.1021/acs.jctc.8b01176
      * Hamiltonian:
        H0-scaling (s, p, d)           1.850000    2.230000    2.230000
        zeta-weighting                 0.500000
      * Dispersion:
        s8                             2.700000
        a1                             0.520000
        a2                             5.000000
        s9                             5.000000
      * Repulsion:
        kExp                           1.500000    1.000000
        rExp                           1.000000
      * Coulomb:
        alpha                          2.000000
        third order                    shell-resolved
        anisotropic                    true
        a3                             3.000000
        a5                             4.000000
        cn-shift                       1.200000
        cn-exp                         4.000000
        max-rad                        5.000000


          ...................................................
          :                      SETUP                      :
          :.................................................:
          :  # basis functions                  36          :
          :  # atomic orbitals                  36          :
          :  # shells                           22          :
          :  # electrons                        38          :
          :  max. iterations                   250          :
          :  Hamiltonian                  GFN2-xTB          :
          :  restarted?                      false          :
          :  GBSA solvation                  false          :
          :  PC potential                    false          :
          :  electronic temp.          300.0000000     K    :
          :  accuracy                    1.0000000          :
          :  -> integral cutoff          0.2500000E+02      :
          :  -> integral neglect         0.1000000E-07      :
          :  -> SCF convergence          0.1000000E-05 Eh   :
          :  -> wf. convergence          0.1000000E-03 e    :
          :  Broyden damping             0.4000000          :
          :  net charge                          0          :
          :  unpaired electrons                  0          :
          ...................................................

 iter      E             dE          RMSdq      gap      omega  full diag
   1    -20.8471455 -0.208471E+02  0.315E+00    5.18       0.0  T
   2    -20.8941318 -0.469863E-01  0.238E+00    4.80       1.0  T
   3    -20.9019096 -0.777782E-02  0.129E+00    4.88       1.0  T
   4    -20.9018950  0.146176E-04  0.395E-01    4.76       1.0  T
   5    -20.9030124 -0.111734E-02  0.915E-02    4.79       1.0  T
   6    -20.9030297 -0.173740E-04  0.400E-02    4.77       1.0  T
   7    -20.9030371 -0.737472E-05  0.208E-02    4.78       1.2  T
   8    -20.9030377 -0.627421E-06  0.430E-03    4.78       6.0  T
   9    -20.9030379 -0.141764E-06  0.149E-03    4.78      17.3  T
  10    -20.9030379 -0.792485E-08  0.627E-04    4.78      41.2  T
  11    -20.9030379 -0.713481E-09  0.203E-04    4.78     127.0  T

   *** convergence criteria satisfied after 11 iterations ***

         #    Occupation            Energy/Eh            Energy/eV
      -------------------------------------------------------------
         1        2.0000           -0.6805938             -18.5199
       ...           ...                  ...                  ...
        13        2.0000           -0.4671179             -12.7109
        14        2.0000           -0.4658817             -12.6773
        15        2.0000           -0.4514064             -12.2834
        16        2.0000           -0.4366706             -11.8824
        17        2.0000           -0.3889856             -10.5848
        18        2.0000           -0.3783920             -10.2966
        19        2.0000           -0.3764943             -10.2449 (HOMO)
        20                         -0.2008791              -5.4662 (LUMO)
        21                         -0.1439463              -3.9170
        22                         -0.0071529              -0.1946
        23                          0.0937811               2.5519
        24                          0.1083605               2.9486
       ...                                ...                  ...
        36                          0.6734229              18.3248
      -------------------------------------------------------------
                  HL-Gap            0.1756151 Eh            4.7787 eV
             Fermi-level           -0.2886867 Eh           -7.8556 eV

 SCC (total)                   0 d,  0 h,  0 min,  3.912 sec
 SCC setup                      ...        0 min,  0.066 sec (  1.693%)
 Dispersion                     ...        0 min,  0.117 sec (  2.993%)
 classical contributions        ...        0 min,  0.042 sec (  1.062%)
 integral evaluation            ...        0 min,  0.153 sec (  3.904%)
 iterations                     ...        0 min,  3.183 sec ( 81.352%)
 molecular gradient             ...        0 min,  0.352 sec (  8.992%)
 printout                       ...        0 min,  0.000 sec (  0.004%)

         :::::::::::::::::::::::::::::::::::::::::::::::::::::
         ::                     SUMMARY                     ::
         :::::::::::::::::::::::::::::::::::::::::::::::::::::
         :: total energy             -20.618350642256 Eh    ::
         :: gradient norm              0.053962676175 Eh/a0 ::
         :: HOMO-LUMO gap              4.778731032820 eV    ::
         ::.................................................::
         :: SCC energy               -20.903031336180 Eh    ::
         :: -> isotropic ES            0.011432372832 Eh    ::
         :: -> anisotropic ES          0.003688151427 Eh    ::
         :: -> anisotropic XC          0.018003388192 Eh    ::
         :: -> dispersion             -0.009636653140 Eh    ::
         :: repulsion energy           0.284680693924 Eh    ::
         :: add. restraining           0.000000000000 Eh    ::
         :: total charge               0.000000000000 e     ::
         :::::::::::::::::::::::::::::::::::::::::::::::::::::

      ----------------------------------------------------------- 
     |                   =====================                   |
     |                        A N C O P T                        |
     |                   =====================                   |
     |               Approximate Normal Coordinate               |
     |                Rational Function Optimizer                |
      ----------------------------------------------------------- 
      ----------------------------------------------------------- 
     |                   =====================                   |
     |                        A N C O P T                        |
     |                   =====================                   |
     |               Approximate Normal Coordinate               |
     |                Rational Function Optimizer                |
      ----------------------------------------------------------- 

          ...................................................
          :                      SETUP                      :
          :.................................................:
          :   optimization level             tight          :
          :   max. optcycles                   200          :
          :   ANC micro-cycles                  20          :
          :   degrees of freedom                39          :
          :.................................................:
          :   RF solver                   davidson          :
          :   write xtbopt.log                true          :
          :   linear?                        false          :
          :   energy convergence         0.1000000E-05 Eh   :
          :   grad. convergence          0.8000000E-03 Eh/α :
          :   maxmium RF displ.          1.0000000          :
          :   Hlow (freq-cutoff)         0.1000000E-01      :
          :   Hmax (freq-cutoff)         5.0000000          :
          :   S6 in model hess.         20.0000000          :
          ...................................................

generating ANC from exact Hessian ...
Using Lindh-Hessian (1995)
 Shifting diagonal of input Hessian by    4.1238527889105540E-003
 Lowest  eigenvalues of input Hessian
    0.000000    0.000000    0.000000    0.000000    0.000000    0.000000
    0.010000    0.011939    0.017520    0.018196    0.018437    0.035129
    0.043382    0.046480    0.062079    0.071172    0.076779    0.091031
 Highest eigenvalues
    1.159218    1.572858    1.835462    1.853547    2.050581    2.080834


........................................................................
.............................. CYCLE    1 ..............................
........................................................................

 iter      E             dE          RMSdq      gap      omega  full diag
   1    -20.9030379 -0.209030E+02  0.511E-05    4.78       0.0  T
   2    -20.9030379 -0.710898E-11  0.247E-05    4.78    1045.5  T
   3    -20.9030379 -0.316192E-12  0.130E-05    4.78    1990.8  T
     SCC iter.                  ...        0 min,  0.431 sec
     gradient                   ...        0 min,  0.221 sec
 * total energy  :   -20.6183506 Eh     change       -0.2258851E-09 Eh
   gradient norm :     0.0539603 Eh/α   predicted     0.0000000E+00 (-100.00%)
   displ. norm   :     0.2342217 α      lambda       -0.6628131E-02
   maximum displ.:     0.1284915 α      in ANC's #4, #9, #22, ...

........................................................................
.............................. CYCLE    2 ..............................
........................................................................

 iter      E             dE          RMSdq      gap      omega  full diag
   1    -20.9225989 -0.209226E+02  0.247E-01    4.85       0.0  T
   2    -20.9226569 -0.579687E-04  0.140E-01    4.86       1.0  T
   3    -20.9226527  0.418176E-05  0.469E-02    4.86       1.0  T
   4    -20.9226638 -0.111148E-04  0.129E-02    4.86       2.0  T
   5    -20.9226647 -0.836399E-06  0.539E-03    4.86       4.8  T
   6    -20.9226646  0.319079E-08  0.196E-03    4.86      13.2  T
   7    -20.9226647 -0.266446E-07  0.532E-04    4.86      48.6  T
   8    -20.9226647 -0.698865E-09  0.156E-04    4.86     165.4  T
     SCC iter.                  ...        0 min,  2.018 sec
     gradient                   ...        0 min,  0.517 sec
 * total energy  :   -20.6225319 Eh     change       -0.4181238E-02 Eh
   gradient norm :     0.0180977 Eh/α   predicted    -0.3495875E-02 ( -16.39%)
   displ. norm   :     0.1778981 α      lambda       -0.1059615E-02
   maximum displ.:     0.1288966 α      in ANC's #4, #1, #5, ...

........................................................................
.............................. CYCLE    3 ..............................
........................................................................

 iter      E             dE          RMSdq      gap      omega  full diag
   1    -20.9288441 -0.209288E+02  0.115E-01    4.88       0.0  T
   2    -20.9288532 -0.909194E-05  0.661E-02    4.89       1.0  T
   3    -20.9288514  0.173222E-05  0.205E-02    4.89       1.3  T
   4    -20.9288544 -0.300949E-05  0.533E-03    4.89       4.8  T
   5    -20.9288546 -0.150539E-06  0.200E-03    4.89      12.9  T
   6    -20.9288546  0.497554E-09  0.730E-04    4.89      35.3  T
   7    -20.9288546 -0.412586E-08  0.159E-04    4.89     162.2  T
     SCC iter.                  ...        0 min,  2.335 sec
     gradient                   ...        0 min,  0.626 sec
 * total energy  :   -20.6231796 Eh     change       -0.6477235E-03 Eh
   gradient norm :     0.0068236 Eh/α   predicted    -0.5465759E-03 ( -15.62%)
   displ. norm   :     0.1150361 α      lambda       -0.2261490E-03
   maximum displ.:     0.0883332 α      in ANC's #4, #1, #3, ...

........................................................................
.............................. CYCLE    4 ..............................
........................................................................

 iter      E             dE          RMSdq      gap      omega  full diag
   1    -20.9287329 -0.209287E+02  0.663E-02    4.89       0.0  T
   2    -20.9287340 -0.107123E-05  0.372E-02    4.89       1.0  T
   3    -20.9287338  0.141705E-06  0.744E-03    4.89       3.5  T
   4    -20.9287341 -0.272175E-06  0.182E-03    4.89      14.2  T
   5    -20.9287341 -0.243421E-07  0.706E-04    4.89      36.6  T
   6    -20.9287341 -0.267317E-09  0.227E-04    4.89     113.5  T
     SCC iter.                  ...        0 min,  1.872 sec
     gradient                   ...        0 min,  0.807 sec
 * total energy  :   -20.6233308 Eh     change       -0.1512146E-03 Eh
   gradient norm :     0.0043196 Eh/α   predicted    -0.1145720E-03 ( -24.23%)
   displ. norm   :     0.0745016 α      lambda       -0.6742445E-04
   maximum displ.:     0.0452965 α      in ANC's #4, #1, #3, ...

........................................................................
.............................. CYCLE    5 ..............................
........................................................................

 iter      E             dE          RMSdq      gap      omega  full diag
   1    -20.9281192 -0.209281E+02  0.400E-02    4.89       0.0  T
   2    -20.9281199 -0.735428E-06  0.223E-02    4.89       1.2  T
   3    -20.9281197  0.218867E-06  0.751E-03    4.89       3.4  T
   4    -20.9281201 -0.385918E-06  0.920E-04    4.89      28.1  T
   5    -20.9281201 -0.148313E-08  0.445E-04    4.89      58.0  T
     SCC iter.                  ...        0 min,  1.538 sec
     gradient                   ...        0 min,  0.518 sec
 * total energy  :   -20.6233708 Eh     change       -0.3993754E-04 Eh
   gradient norm :     0.0019485 Eh/α   predicted    -0.3390117E-04 ( -15.11%)
   displ. norm   :     0.0475637 α      lambda       -0.1214651E-04
   maximum displ.:     0.0317558 α      in ANC's #1, #3, #2, ...

........................................................................
.............................. CYCLE    6 ..............................
........................................................................

 iter      E             dE          RMSdq      gap      omega  full diag
   1    -20.9280229 -0.209280E+02  0.182E-02    4.89       0.0  T
   2    -20.9280232 -0.310916E-06  0.107E-02    4.89       2.4  T
   3    -20.9280232  0.457318E-07  0.445E-03    4.89       5.8  T
   4    -20.9280233 -0.121089E-06  0.465E-04    4.89      55.5  T
   5    -20.9280233 -0.270120E-09  0.229E-04    4.89     112.9  T
     SCC iter.                  ...        0 min,  1.355 sec
     gradient                   ...        0 min,  0.481 sec
 * total energy  :   -20.6233833 Eh     change       -0.1259401E-04 Eh
   gradient norm :     0.0012281 Eh/α   predicted    -0.6080794E-05 ( -51.72%)
   displ. norm   :     0.0761158 α      lambda       -0.1458512E-04
   maximum displ.:     0.0510869 α      in ANC's #1, #3, #5, ...

........................................................................
.............................. CYCLE    7 ..............................
........................................................................

 iter      E             dE          RMSdq      gap      omega  full diag
   1    -20.9279895 -0.209280E+02  0.240E-02    4.89       0.0  T
   2    -20.9279897 -0.155921E-06  0.144E-02    4.89       1.8  T
   3    -20.9279896  0.728932E-07  0.304E-03    4.89       8.5  T
   4    -20.9279897 -0.107366E-06  0.532E-04    4.89      48.5  T
   5    -20.9279897 -0.624354E-09  0.254E-04    4.89     101.8  T
     SCC iter.                  ...        0 min,  1.785 sec
     gradient                   ...        0 min,  0.549 sec
 * total energy  :   -20.6234020 Eh     change       -0.1869097E-04 Eh
   gradient norm :     0.0025075 Eh/α   predicted    -0.7309923E-05 ( -60.89%)
   displ. norm   :     0.1406612 α      lambda       -0.3689660E-04
   maximum displ.:     0.0942515 α      in ANC's #1, #3, #5, ...

........................................................................
.............................. CYCLE    8 ..............................
........................................................................

 iter      E             dE          RMSdq      gap      omega  full diag
   1    -20.9276940 -0.209277E+02  0.432E-02    4.89       0.0  T
   2    -20.9276942 -0.167856E-06  0.257E-02    4.89       1.0  T
   3    -20.9276942 -0.658851E-08  0.219E-03    4.89      11.8  T
   4    -20.9276943 -0.441508E-07  0.922E-04    4.89      28.0  T
   5    -20.9276943 -0.136847E-08  0.341E-04    4.89      75.8  T
     SCC iter.                  ...        0 min,  1.220 sec
     gradient                   ...        0 min,  0.397 sec
 * total energy  :   -20.6234340 Eh     change       -0.3198386E-04 Eh
   gradient norm :     0.0038018 Eh/α   predicted    -0.1881303E-04 ( -41.18%)
   displ. norm   :     0.2561975 α      lambda       -0.6185142E-04
   maximum displ.:     0.1741965 α      in ANC's #1, #3, #5, ...

........................................................................
.............................. CYCLE    9 ..............................
........................................................................

 iter      E             dE          RMSdq      gap      omega  full diag
   1    -20.9264211 -0.209264E+02  0.787E-02    4.89       0.0  T
   2    -20.9264217 -0.597953E-06  0.467E-02    4.89       1.0  T
   3    -20.9264218 -0.117321E-06  0.313E-03    4.89       8.3  T
   4    -20.9264219 -0.337922E-07  0.167E-03    4.89      15.5  T
   5    -20.9264219 -0.605822E-08  0.802E-04    4.89      32.2  T
   6    -20.9264219 -0.295337E-08  0.128E-04    4.89     201.6  T
     SCC iter.                  ...        0 min,  2.022 sec
     gradient                   ...        0 min,  0.649 sec
 * total energy  :   -20.6234723 Eh     change       -0.3824625E-04 Eh
   gradient norm :     0.0060891 Eh/α   predicted    -0.3295654E-04 ( -13.83%)
   displ. norm   :     0.1043475 α      lambda       -0.4466457E-04
   maximum displ.:     0.0716585 α      in ANC's #1, #3, #5, ...

........................................................................
.............................. CYCLE   10 ..............................
........................................................................

 iter      E             dE          RMSdq      gap      omega  full diag
   1    -20.9269093 -0.209269E+02  0.324E-02    4.89       0.0  T
   2    -20.9269094 -0.166134E-06  0.191E-02    4.89       1.3  T
   3    -20.9269094  0.142665E-07  0.244E-03    4.89      10.6  T
   4    -20.9269095 -0.497974E-07  0.760E-04    4.89      34.0  T
   5    -20.9269095 -0.142576E-08  0.379E-04    4.89      68.1  T
     SCC iter.                  ...        0 min,  1.501 sec
     gradient                   ...        0 min,  0.451 sec
 * total energy  :   -20.6235095 Eh     change       -0.3724407E-04 Eh
   gradient norm :     0.0049094 Eh/α   predicted    -0.2257484E-04 ( -39.39%)
   displ. norm   :     0.2379989 α      lambda       -0.9043356E-04
   maximum displ.:     0.1745492 α      in ANC's #1, #3, #5, ...

........................................................................
.............................. CYCLE   11 ..............................
........................................................................

 iter      E             dE          RMSdq      gap      omega  full diag
   1    -20.9274227 -0.209274E+02  0.700E-02    4.89       0.0  T
   2    -20.9274235 -0.780199E-06  0.416E-02    4.89       1.0  T
   3    -20.9274233  0.228875E-06  0.628E-03    4.89       4.1  T
   4    -20.9274237 -0.399004E-06  0.153E-03    4.89      16.8  T
   5    -20.9274237 -0.669341E-08  0.778E-04    4.89      33.2  T
   6    -20.9274237 -0.612829E-09  0.245E-04    4.89     105.2  T
     SCC iter.                  ...        0 min,  1.274 sec
     gradient                   ...        0 min,  0.537 sec
 * total energy  :   -20.6235747 Eh     change       -0.6517770E-04 Eh
   gradient norm :     0.0025121 Eh/α   predicted    -0.4777872E-04 ( -26.69%)
   displ. norm   :     0.1608299 α      lambda       -0.5377288E-04
   maximum displ.:     0.1212265 α      in ANC's #1, #3, #4, ...

........................................................................
.............................. CYCLE   12 ..............................
........................................................................

 iter      E             dE          RMSdq      gap      omega  full diag
   1    -20.9285242 -0.209285E+02  0.481E-02    4.90       0.0  T
   2    -20.9285248 -0.665118E-06  0.285E-02    4.90       1.0  T
   3    -20.9285247  0.108149E-06  0.514E-03    4.90       5.0  T
   4    -20.9285249 -0.193533E-06  0.123E-03    4.90      21.1  T
   5    -20.9285249 -0.804050E-08  0.602E-04    4.90      42.9  T
   6    -20.9285249 -0.179927E-09  0.201E-04    4.90     128.6  T
     SCC iter.                  ...        0 min,  1.667 sec
     gradient                   ...        0 min,  0.491 sec
 * total energy  :   -20.6236086 Eh     change       -0.3390407E-04 Eh
   gradient norm :     0.0021035 Eh/α   predicted    -0.2758373E-04 ( -18.64%)
   displ. norm   :     0.5153724 α      lambda       -0.7633398E-04
   maximum displ.:     0.3793980 α      in ANC's #1, #3, #5, ...

........................................................................
.............................. CYCLE   13 ..............................
........................................................................

 iter      E             dE          RMSdq      gap      omega  full diag
   1    -20.9204490 -0.209204E+02  0.163E-01    4.89       0.0  T
   2    -20.9204595 -0.104776E-04  0.946E-02    4.89       1.0  T
   3    -20.9204598 -0.324639E-06  0.158E-02    4.89       1.6  T
   4    -20.9204605 -0.656951E-06  0.558E-03    4.89       4.6  T
   5    -20.9204607 -0.175413E-06  0.265E-03    4.89       9.7  T
   6    -20.9204607 -0.139408E-07  0.726E-04    4.89      35.6  T
   7    -20.9204607 -0.133191E-08  0.262E-04    4.89      98.4  T
     SCC iter.                  ...        0 min,  1.919 sec
     gradient                   ...        0 min,  0.410 sec
 * total energy  :   -20.6233001 Eh     change        0.3085461E-03 Eh
   gradient norm :     0.0163196 Eh/α   predicted    -0.4830510E-04 (-115.66%)
   displ. norm   :     0.3248686 α      lambda       -0.8340157E-03
   maximum displ.:     0.2375775 α      in ANC's #1, #3, #5, ...

........................................................................
.............................. CYCLE   14 ..............................
........................................................................

 iter      E             dE          RMSdq      gap      omega  full diag
   1    -20.9286155 -0.209286E+02  0.117E-01    4.90       0.0  T
   2    -20.9286243 -0.882898E-05  0.668E-02    4.90       1.0  T
   3    -20.9286246 -0.278029E-06  0.151E-02    4.90       1.7  T
   4    -20.9286250 -0.374447E-06  0.475E-03    4.90       5.4  T
   5    -20.9286251 -0.136374E-06  0.216E-03    4.90      12.0  T
   6    -20.9286251 -0.979771E-08  0.668E-04    4.90      38.7  T
   7    -20.9286251 -0.821444E-09  0.244E-04    4.90     105.6  T
     SCC iter.                  ...        0 min,  1.073 sec
     gradient                   ...        0 min,  0.307 sec
 * total energy  :   -20.6236322 Eh     change       -0.3321982E-03 Eh
   gradient norm :     0.0028252 Eh/α   predicted    -0.4610173E-03 (  38.78%)
   displ. norm   :     0.0257045 α      lambda       -0.8382819E-05
   maximum displ.:     0.0194249 α      in ANC's #1, #3, #5, ...

........................................................................
.............................. CYCLE   15 ..............................
........................................................................

 iter      E             dE          RMSdq      gap      omega  full diag
   1    -20.9283920 -0.209284E+02  0.849E-03    4.90       0.0  T
   2    -20.9283921 -0.503351E-07  0.508E-03    4.90       5.1  T
   3    -20.9283921  0.876301E-08  0.151E-03    4.90      17.1  T
   4    -20.9283921 -0.158553E-07  0.273E-04    4.90      94.7  T
   5    -20.9283921 -0.337696E-09  0.127E-04    4.90     202.7  T
     SCC iter.                  ...        0 min,  0.844 sec
     gradient                   ...        0 min,  0.304 sec
 * total energy  :   -20.6236392 Eh     change       -0.6913922E-05 Eh
   gradient norm :     0.0018820 Eh/α   predicted    -0.4194438E-05 ( -39.33%)
   displ. norm   :     0.1949033 α      lambda       -0.2411681E-04
   maximum displ.:     0.1492759 α      in ANC's #1, #3, #5, ...

........................................................................
.............................. CYCLE   16 ..............................
........................................................................

 iter      E             dE          RMSdq      gap      omega  full diag
   1    -20.9270164 -0.209270E+02  0.568E-02    4.89       0.0  T
   2    -20.9270174 -0.107477E-05  0.340E-02    4.89       1.0  T
   3    -20.9270171  0.340823E-06  0.730E-03    4.89       3.5  T
   4    -20.9270176 -0.521159E-06  0.137E-03    4.89      18.8  T
   5    -20.9270176 -0.624638E-08  0.700E-04    4.89      36.9  T
   6    -20.9270176 -0.205205E-10  0.197E-04    4.89     131.0  T
     SCC iter.                  ...        0 min,  1.053 sec
     gradient                   ...        0 min,  0.328 sec
 * total energy  :   -20.6236478 Eh     change       -0.8606669E-05 Eh
   gradient norm :     0.0036078 Eh/α   predicted    -0.1226364E-04 (  42.49%)
   displ. norm   :     0.0111769 α      lambda       -0.1562889E-04
   maximum displ.:     0.0058818 α      in ANC's #1, #5, #3, ...

........................................................................
.............................. CYCLE   17 ..............................
........................................................................

 iter      E             dE          RMSdq      gap      omega  full diag
   1    -20.9278099 -0.209278E+02  0.955E-03    4.90       0.0  T
   2    -20.9278100 -0.126322E-06  0.538E-03    4.90       4.8  T
   3    -20.9278100 -0.870486E-09  0.200E-03    4.90      12.9  T
   4    -20.9278100 -0.890543E-08  0.492E-04    4.90      52.4  T
   5    -20.9278100 -0.130632E-08  0.223E-04    4.90     116.0  T
     SCC iter.                  ...        0 min,  1.020 sec
     gradient                   ...        0 min,  0.348 sec
 * total energy  :   -20.6236579 Eh     change       -0.1016431E-04 Eh
   gradient norm :     0.0021107 Eh/α   predicted    -0.7813144E-05 ( -23.13%)
   displ. norm   :     0.0303277 α      lambda       -0.1126808E-04
   maximum displ.:     0.0203941 α      in ANC's #1, #3, #22, ...

........................................................................
.............................. CYCLE   18 ..............................
........................................................................

 iter      E             dE          RMSdq      gap      omega  full diag
   1    -20.9285155 -0.209285E+02  0.117E-02    4.90       0.0  T
   2    -20.9285157 -0.180034E-06  0.678E-03    4.90       3.8  T
   3    -20.9285157  0.725529E-08  0.267E-03    4.90       9.7  T
   4    -20.9285157 -0.264574E-07  0.555E-04    4.90      46.5  T
   5    -20.9285157 -0.174345E-08  0.239E-04    4.90     107.9  T
     SCC iter.                  ...        0 min,  0.696 sec
     gradient                   ...        0 min,  0.395 sec
 * total energy  :   -20.6236641 Eh     change       -0.6137452E-05 Eh
   gradient norm :     0.0004610 Eh/α   predicted    -0.5638894E-05 (  -8.12%)
   displ. norm   :     0.1460197 α      lambda       -0.8252901E-05
   maximum displ.:     0.1068754 α      in ANC's #1, #3, #5, ...

........................................................................
.............................. CYCLE   19 ..............................
........................................................................

 iter      E             dE          RMSdq      gap      omega  full diag
   1    -20.9283510 -0.209284E+02  0.413E-02    4.90       0.0  T
   2    -20.9283511 -0.126169E-06  0.246E-02    4.90       1.0  T
   3    -20.9283511  0.545528E-08  0.222E-03    4.90      11.7  T
   4    -20.9283512 -0.441329E-07  0.859E-04    4.90      30.1  T
   5    -20.9283512 -0.115612E-08  0.372E-04    4.90      69.4  T
     SCC iter.                  ...        0 min,  0.874 sec
     gradient                   ...        0 min,  0.313 sec
 * total energy  :   -20.6236725 Eh     change       -0.8382943E-05 Eh
   gradient norm :     0.0008390 Eh/α   predicted    -0.4164742E-05 ( -50.32%)
   displ. norm   :     0.1806415 α      lambda       -0.6270987E-05
   maximum displ.:     0.1314370 α      in ANC's #1, #3, #5, ...

........................................................................
.............................. CYCLE   20 ..............................
........................................................................

 iter      E             dE          RMSdq      gap      omega  full diag
   1    -20.9274464 -0.209274E+02  0.510E-02    4.90       0.0  T
   2    -20.9274466 -0.221000E-06  0.303E-02    4.90       1.0  T
   3    -20.9274467 -0.482943E-07  0.183E-03    4.90      14.1  T
   4    -20.9274467 -0.789882E-08  0.926E-04    4.90      27.9  T
   5    -20.9274467 -0.655259E-09  0.388E-04    4.90      66.5  T
     SCC iter.                  ...        0 min,  1.177 sec
     gradient                   ...        0 min,  0.314 sec
 * total energy  :   -20.6236720 Eh     change        0.4334285E-06 Eh
   gradient norm :     0.0022372 Eh/α   predicted    -0.3180058E-05 (-833.70%)
   displ. norm   :     0.0489827 α      lambda       -0.8734534E-05
   maximum displ.:     0.0375952 α      in ANC's #1, #3, #5, ...
 * RMSD in coord.:     0.4950859 α      energy gain  -0.5321378E-02 Eh

generating ANC from exact Hessian ...
Using Lindh-Hessian (1995)
 Shifting diagonal of input Hessian by    3.4492478654876632E-003
 Lowest  eigenvalues of input Hessian
    0.000000    0.000000    0.000000    0.000000    0.000000    0.000000
    0.010000    0.012222    0.017996    0.018333    0.019262    0.037204
    0.047296    0.051446    0.068099    0.079043    0.087322    0.093254
 Highest eigenvalues
    1.209398    1.622448    1.818371    1.903287    2.085848    2.093191


........................................................................
.............................. CYCLE   21 ..............................
........................................................................

 iter      E             dE          RMSdq      gap      omega  full diag
   1    -20.9281675 -0.209282E+02  0.147E-02    4.90       0.0  T
   2    -20.9281675 -0.696939E-07  0.859E-03    4.90       3.0  T
   3    -20.9281675 -0.195008E-09  0.134E-03    4.90      19.2  T
   4    -20.9281676 -0.696658E-08  0.510E-04    4.90      50.6  T
   5    -20.9281676 -0.144811E-08  0.218E-04    4.90     118.5  T
     SCC iter.                  ...        0 min,  1.008 sec
     gradient                   ...        0 min,  0.315 sec
 * total energy  :   -20.6236770 Eh     change       -0.5020480E-05 Eh
   gradient norm :     0.0008319 Eh/α   predicted     0.0000000E+00 (-100.00%)
   displ. norm   :     0.0039466 α      lambda       -0.1215465E-05
   maximum displ.:     0.0026152 α      in ANC's #5, #22, #27, ...

........................................................................
.............................. CYCLE   22 ..............................
........................................................................

 iter      E             dE          RMSdq      gap      omega  full diag
   1    -20.9285632 -0.209286E+02  0.423E-03    4.90       0.0  T
   2    -20.9285633 -0.255744E-07  0.244E-03    4.90      10.6  T
   3    -20.9285633  0.477247E-09  0.941E-04    4.90      27.4  T
   4    -20.9285633 -0.391976E-08  0.244E-04    4.90     105.8  T
     SCC iter.                  ...        0 min,  0.942 sec
     gradient                   ...        0 min,  0.460 sec
 * total energy  :   -20.6236778 Eh     change       -0.7643335E-06 Eh
   gradient norm :     0.0001762 Eh/α   predicted    -0.6081441E-06 ( -20.43%)
   displ. norm   :     0.0018496 α      lambda       -0.9680991E-07
   maximum displ.:     0.0014620 α      in ANC's #5, #8, #12, ...

   *** GEOMETRY OPTIMIZATION CONVERGED AFTER 22 ITERATIONS ***

------------------------------------------------------------------------
 total energy gain   :        -0.0053272 Eh       -3.3428 kcal/mol
 total RMSD          :         0.4952720 a0        0.2621 Å
 total power (kW/mol):        -0.6357484 (step)   -0.2928 (real)
------------------------------------------------------------------------

 ANCopt (total)                0 d,  0 h,  0 min, 47.774 sec
 optimizer setup                ...        0 min,  0.000 sec (  0.001%)
 model hessian                  ...        0 min,  0.003 sec (  0.007%)
 ANC generation                 ...        0 min,  0.001 sec (  0.001%)
 coordinate transformation      ...        0 min,  0.000 sec (  0.000%)
 single point calculation       ...        0 min, 46.625 sec ( 97.596%)
 optimization log               ...        0 min,  0.002 sec (  0.004%)
 hessian update                 ...        0 min,  1.104 sec (  2.311%)
 rational function              ...        0 min,  0.028 sec (  0.060%)

================
 final structure:
================
15
 xtb: 6.7.1 (edcfbbe)
C            2.42565844340181       -0.61847551761115        0.25627028555494
C            1.05525320679105       -0.07303061061965        0.06563816832581
N           -0.02123682054563       -0.83051832042200        0.19614794291209
N           -1.06922590541184       -0.04410316059642       -0.03677671510181
C           -2.40228999391771       -0.56744690155299        0.02419666998774
C           -0.68906342226997        1.21818577560652       -0.31836529281483
C            0.68388819255600        1.24414700772695       -0.26252031160479
H            2.93997617226829       -0.08365363746591        1.05369091541220
H            3.00903111885874       -0.50796666342163       -0.65701264358261
H            2.36344018483109       -1.67155491995010        0.51447847724105
H           -2.89451853978430       -0.49019201930686       -0.94783093460679
H           -2.33214805876328       -1.61482550518928        0.30960544639898
H           -2.99574236451291       -0.02846016496100        0.76553336550192
H           -1.40417523789679        1.98740431393893       -0.53230751291963
H            1.33115402439542        2.08049032382469       -0.43074786070424

 Bond Distances (Angstroems)
 ---------------------------
C1-C2=1.4872         C1-H8=1.0892         C1-H9=1.0893         C1-H10=1.0861        C2-C1=1.4872         C2-N3=1.3227         
C2-C7=1.4073         N3-C2=1.3227         N3-N4=1.3308         N4-N3=1.3308         N4-C5=1.4334         N4-C6=1.3480         
C5-N4=1.4334         C5-H11=1.0923        C5-H12=1.0878        C5-H13=1.0919        C6-N4=1.3480         C6-C7=1.3743         
C6-H14=1.0718        C7-C2=1.4073         C7-C6=1.3743         C7-H15=1.0709        H8-C1=1.0892         H9-C1=1.0893         
H10-C1=1.0861        H11-C5=1.0923        H12-C5=1.0878        H13-C5=1.0919        H14-C6=1.0718        H15-C7=1.0709        
 C  H  Rav=1.0849 sigma=0.0081  Rmin=1.0709  Rmax=1.0923     8
 C  C  Rav=1.4230 sigma=0.0474  Rmin=1.3743  Rmax=1.4872     3
 N  C  Rav=1.3681 sigma=0.0473  Rmin=1.3227  Rmax=1.4334     3
 N  N  Rav=1.3308 sigma=0.0000  Rmin=1.3308  Rmax=1.3308     1

 selected bond angles (degree)
 --------------------
H8-C1-C2=110.42                H9-C1-C2=110.41                H9-C1-H8=108.13                H10-C1-C2=109.47               
H10-C1-H8=109.21               H10-C1-H9=109.17               N3-C2-C1=121.82                C7-C2-C1=128.05                
C7-C2-N3=110.14                N4-N3-C2=106.57                C5-N4-N3=120.61                C6-N4-N3=111.58                
C6-N4-C5=127.81                H11-C5-N4=110.82               H12-C5-N4=107.62               H12-C5-H11=109.31              
H13-C5-N4=110.74               H13-C5-H11=108.93              H13-C5-H12=109.40              C7-C6-N4=106.91                
H14-C6-N4=121.71               H14-C6-C7=131.38               C6-C7-C2=104.80                H15-C7-C2=127.45               
H15-C7-C6=127.75               

 selected dihedral angles (degree)
 ---------------------------------
N3-C2-C1-H8=239.07            N3-C2-C1-H9=119.55            N3-C2-C1-H10=359.34           C7-C2-C1-H8= 59.08            
C7-C2-C1-H9=299.56            C7-C2-C1-H10=179.35           N4-N3-C2-C1=179.99            N4-N3-C2-C7=  0.00            
C5-N4-N3-C2=179.88            C6-N4-N3-C2=  0.00            H11-C5-N4-N3=242.50           H11-C5-N4-C6= 62.33           
H12-C5-N4-N3=  1.97           H12-C5-N4-C6=181.80           H13-C5-N4-N3=121.50           H13-C5-N4-C6=301.33           
C7-C6-N4-N3=359.98            C7-C6-N4-C5=180.13            H14-C6-N4-N3=180.00           H14-C6-N4-C5=  0.16           
C6-C7-C2-C1=179.99            C6-C7-C2-N3=  0.00            H15-C7-C2-C1=359.97           H15-C7-C2-N3=179.98           
C2-C7-C6-N4=  0.00            C2-C7-C6-H14=179.99           H15-C7-C6-N4=180.03           H15-C7-C6-H14=  0.00          
           -------------------------------------------------
          |                Final Singlepoint                |
           -------------------------------------------------

          ...................................................
          :                      SETUP                      :
          :.................................................:
          :  # basis functions                  36          :
          :  # atomic orbitals                  36          :
          :  # shells                           22          :
          :  # electrons                        38          :
          :  max. iterations                   250          :
          :  Hamiltonian                  GFN2-xTB          :
          :  restarted?                      false          :
          :  GBSA solvation                  false          :
          :  PC potential                    false          :
          :  electronic temp.          300.0000000     K    :
          :  accuracy                    1.0000000          :
          :  -> integral cutoff          0.2500000E+02      :
          :  -> integral neglect         0.1000000E-07      :
          :  -> SCF convergence          0.1000000E-05 Eh   :
          :  -> wf. convergence          0.1000000E-03 e    :
          :  Broyden damping             0.4000000          :
          :  net charge                          0          :
          :  unpaired electrons                  0          :
          ...................................................

 iter      E             dE          RMSdq      gap      omega  full diag
   1    -20.9285633 -0.209286E+02  0.934E-05    4.90       0.0  T
   2    -20.9285633 -0.735767E-11  0.551E-05    4.90     469.0  T
   3    -20.9285633  0.224887E-11  0.274E-05    4.90     940.8  T

   *** convergence criteria satisfied after 3 iterations ***

         #    Occupation            Energy/Eh            Energy/eV
      -------------------------------------------------------------
         1        2.0000           -0.6801809             -18.5087
       ...           ...                  ...                  ...
        13        2.0000           -0.4673447             -12.7171
        14        2.0000           -0.4652343             -12.6597
        15        2.0000           -0.4499088             -12.2426
        16        2.0000           -0.4408209             -11.9953
        17        2.0000           -0.3892715             -10.5926
        18        2.0000           -0.3792933             -10.3211
        19        2.0000           -0.3782917             -10.2938 (HOMO)
        20                         -0.1982839              -5.3956 (LUMO)
        21                         -0.1455639              -3.9610
        22                          0.0142473               0.3877
        23                          0.1144020               3.1130
        24                          0.1258966               3.4258
       ...                                ...                  ...
        36                          0.6798162              18.4987
      -------------------------------------------------------------
                  HL-Gap            0.1800078 Eh            4.8983 eV
             Fermi-level           -0.2882878 Eh           -7.8447 eV

 SCC (total)                   0 d,  0 h,  0 min,  1.280 sec
 SCC setup                      ...        0 min,  0.017 sec (  1.338%)
 Dispersion                     ...        0 min,  0.098 sec (  7.633%)
 classical contributions        ...        0 min,  0.038 sec (  2.977%)
 integral evaluation            ...        0 min,  0.115 sec (  8.966%)
 iterations                     ...        0 min,  0.627 sec ( 48.949%)
 molecular gradient             ...        0 min,  0.386 sec ( 30.125%)
 printout                       ...        0 min,  0.000 sec (  0.008%)

         :::::::::::::::::::::::::::::::::::::::::::::::::::::
         ::                     SUMMARY                     ::
         :::::::::::::::::::::::::::::::::::::::::::::::::::::
         :: total energy             -20.623677805678 Eh    ::
         :: gradient norm              0.000176667557 Eh/a0 ::
         :: HOMO-LUMO gap              4.898260562388 eV    ::
         ::.................................................::
         :: SCC energy               -20.928554530775 Eh    ::
         :: -> isotropic ES            0.011228943690 Eh    ::
         :: -> anisotropic ES          0.002837367862 Eh    ::
         :: -> anisotropic XC          0.017041292081 Eh    ::
         :: -> dispersion             -0.009674327052 Eh    ::
         :: repulsion energy           0.304876725098 Eh    ::
         :: add. restraining           0.000000000000 Eh    ::
         :: total charge               0.000000000000 e     ::
         :::::::::::::::::::::::::::::::::::::::::::::::::::::

           -------------------------------------------------
          |                Property Printout                |
           -------------------------------------------------

    * Orbital Energies and Occupations

         #    Occupation            Energy/Eh            Energy/eV
      -------------------------------------------------------------
         1        2.0000           -0.6801809             -18.5087
       ...           ...                  ...                  ...
         7        2.0000           -0.5485058             -14.9256
         8        2.0000           -0.5456963             -14.8492
         9        2.0000           -0.5311758             -14.4540
        10        2.0000           -0.4948795             -13.4664
        11        2.0000           -0.4914945             -13.3742
        12        2.0000           -0.4836609             -13.1611
        13        2.0000           -0.4673447             -12.7171
        14        2.0000           -0.4652343             -12.6597
        15        2.0000           -0.4499088             -12.2426
        16        2.0000           -0.4408209             -11.9953
        17        2.0000           -0.3892715             -10.5926
        18        2.0000           -0.3792933             -10.3211
        19        2.0000           -0.3782917             -10.2938 (HOMO)
        20                         -0.1982839              -5.3956 (LUMO)
        21                         -0.1455639              -3.9610
        22                          0.0142473               0.3877
        23                          0.1144020               3.1130
        24                          0.1258966               3.4258
        25                          0.1433964               3.9020
        26                          0.1784753               4.8566
        27                          0.1841972               5.0123
        28                          0.1977181               5.3802
        29                          0.1990986               5.4177
        30                          0.2130869               5.7984
       ...                                ...                  ...
        36                          0.6798162              18.4987
      -------------------------------------------------------------
                  HL-Gap            0.1800078 Eh            4.8983 eV
             Fermi-level           -0.2882878 Eh           -7.8447 eV

     #   Z          covCN         q      C6AA      α(0)
     1   6 C        3.755    -0.109    22.633     6.784
     2   6 C        3.153     0.068    26.206     8.372
     3   7 N        2.015    -0.254    27.398     7.764
     4   7 N        3.033     0.082    19.816     6.612
     5   6 C        3.692    -0.061    21.858     6.690
     6   6 C        3.023    -0.022    28.535     8.762
     7   6 C        3.025    -0.085    30.100     8.999
     8   1 H        0.925     0.042     2.418     2.432
     9   1 H        0.925     0.042     2.416     2.431
    10   1 H        0.925     0.053     2.280     2.361
    11   1 H        0.924     0.057     2.237     2.339
    12   1 H        0.925     0.083     1.949     2.183
    13   1 H        0.924     0.057     2.236     2.339
    14   1 H        0.926     0.026     2.638     2.540
    15   1 H        0.926     0.020     2.730     2.584

 Mol. C6AA /au·bohr⁶  :       2235.599094
 Mol. C8AA /au·bohr⁸  :      50346.941510
 Mol. α(0) /au        :         73.190682


Wiberg/Mayer (AO) data.
largest (>0.10) Wiberg bond orders for each atom

 ---------------------------------------------------------------------------
     #   Z sym  total        # sym  WBO       # sym  WBO       # sym  WBO
 ---------------------------------------------------------------------------
     1   6 C    3.997 --     2 C    1.027    10 H    0.984     8 H    0.974
                             9 H    0.973
     2   6 C    3.977 --     3 N    1.484     7 C    1.338     1 C    1.027
     3   7 N    2.956 --     2 C    1.484     4 N    1.197     6 C    0.154
     4   7 N    3.668 --     6 C    1.276     3 N    1.197     5 C    1.005
     5   6 C    3.971 --     4 N    1.005    12 H    0.979    13 H    0.975
                            11 H    0.974
     6   6 C    3.958 --     7 C    1.512     4 N    1.276    14 H    0.969
                             3 N    0.154
     7   6 C    3.977 --     6 C    1.512     2 C    1.338    15 H    0.975
     8   1 H    0.998 --     1 C    0.974
     9   1 H    0.998 --     1 C    0.973
    10   1 H    0.997 --     1 C    0.984
    11   1 H    0.996 --     5 C    0.974
    12   1 H    0.993 --     5 C    0.979
    13   1 H    0.996 --     5 C    0.975
    14   1 H    0.999 --     6 C    0.969
    15   1 H    1.000 --     7 C    0.975
 ---------------------------------------------------------------------------
Note: The following floating-point exceptions are signalling: IEEE_UNDERFLOW_FLAG IEEE_DENORMAL
normal termination of xtb

Topologies differ in total number of bonds
Writing topology from bond orders to xtbtopo.mol

molecular dipole:
                 x           y           z       tot (Debye)
 q only:       -0.626      -0.022      -0.022
   full:       -0.656       0.379      -0.120       1.950
molecular quadrupole (traceless):
                xx          xy          yy          xz          yz          zz
 q only:        5.471       0.617      -2.675       0.220      -0.010      -2.796
  q+dip:        6.214       0.241      -2.849       0.373      -0.125      -3.365
   full:        6.142       0.218      -3.574       0.335       0.256      -2.568

           -------------------------------------------------
          |                Geometry Summary                 |
           -------------------------------------------------

      molecular mass/u    :       96.1306119
   center of mass at/Å    :       -0.0245890       0.0194688      -0.0053221
  moments of inertia/u·Å² :        0.7565830E+02   0.2345813E+03   0.3039194E+03
rotational constants/cm⁻¹ :        0.2228127E+00   0.7186265E-01   0.5546744E-01

 * 15 selected distances

     #   Z          #   Z                                           value/Å
     1   6 C        2   6 C                                       1.4872329 (max)
     2   6 C        3   7 N                                       1.3227439
     3   7 N        4   7 N                                       1.3307833
     4   7 N        5   6 C                                       1.4334109
     4   7 N        6   6 C                                       1.3480317
     2   6 C        7   6 C                                       1.4073227
     6   6 C        7   6 C                                       1.3743323
     1   6 C        8   1 H                                       1.0892369
     1   6 C        9   1 H                                       1.0893217
     1   6 C       10   1 H                                       1.0860566
     5   6 C       11   1 H                                       1.0922889
     5   6 C       12   1 H                                       1.0878328
     5   6 C       13   1 H                                       1.0919124
     6   6 C       14   1 H                                       1.0718459
     7   6 C       15   1 H                                       1.0708520 (min)

 * 4 distinct bonds (by element types)

   Z      Z             #   av. dist./Å        max./Å        min./Å
   1 H    6 C           8     1.0849184     1.0922889     1.0708520
   6 C    6 C           3     1.4229626     1.4872329     1.3743323
   6 C    7 N           3     1.3680621     1.4334109     1.3227439
   7 N    7 N           1     1.3307833     1.3307833     1.3307833


optimized geometry written to: xtbopt.xyz


           -------------------------------------------------
          | TOTAL ENERGY              -20.623677805678 Eh   |
          | GRADIENT NORM               0.000176667557 Eh/α |
          | HOMO-LUMO GAP               4.898260562388 eV   |
           -------------------------------------------------

------------------------------------------------------------------------
 * finished run on 2026/08/20 at 02:26:34.620     
------------------------------------------------------------------------
 total:
 * wall-time:     0 d,  0 h,  0 min, 53.362 sec
 *  cpu-time:     0 d,  0 h,  2 min, 50.598 sec
 * ratio c/w:     3.197 speedup
 SCF:
 * wall-time:     0 d,  0 h,  0 min,  3.913 sec
 *  cpu-time:     0 d,  0 h,  0 min, 11.641 sec
 * ratio c/w:     2.975 speedup
 ANC optimizer:
 * wall-time:     0 d,  0 h,  0 min, 49.068 sec
 *  cpu-time:     0 d,  0 h,  2 min, 37.872 sec
 * ratio c/w:     3.217 speedup

