15
 energy: -20.623677805678 gnorm: 0.000176667557 xtb: 6.7.1 (edcfbbe)
C            2.42565844340181       -0.61847551761115        0.25627028555494
C            1.05525320679105       -0.07303061061965        0.06563816832581
N           -0.02123682054563       -0.83051832042200        0.19614794291209
N           -1.06922590541184       -0.04410316059642       -0.03677671510181
C           -2.40228999391771       -0.56744690155299        0.02419666998774
C           -0.68906342226997        1.21818577560652       -0.31836529281483
C            0.68388819255600        1.24414700772695       -0.26252031160479
H            2.93997617226829       -0.08365363746591        1.05369091541220
H            3.00903111885874       -0.50796666342163       -0.65701264358261
H            2.36344018483109       -1.67155491995010        0.51447847724105
H           -2.89451853978430       -0.49019201930686       -0.94783093460679
H           -2.33214805876328       -1.61482550518928        0.30960544639898
H           -2.99574236451291       -0.02846016496100        0.76553336550192
H           -1.40417523789679        1.98740431393893       -0.53230751291963
H            1.33115402439542        2.08049032382469       -0.43074786070424
