      -----------------------------------------------------------      
     |                   =====================                   |     
     |                           x T B                           |     
     |                   =====================                   |     
     |                         S. Grimme                         |     
     |          Mulliken Center for Theoretical Chemistry        |     
     |                    University of Bonn                     |     
      -----------------------------------------------------------      

   * xtb version 6.7.1 (edcfbbe) compiled by 'conda@3ef47c1a292c' on 2024-11-25

   xtb is free software: you can redistribute it and/or modify it under
   the terms of the GNU Lesser General Public License as published by
   the Free Software Foundation, either version 3 of the License, or
   (at your option) any later version.
   
   xtb is distributed in the hope that it will be useful,
   but WITHOUT ANY WARRANTY; without even the implied warranty of
   MERCHANTABILITY or FITNESS FOR A PARTICULAR PURPOSE.  See the
   GNU Lesser General Public License for more details.
   
   Cite this work as:
   * C. Bannwarth, E. Caldeweyher, S. Ehlert, A. Hansen, P. Pracht,
     J. Seibert, S. Spicher, S. Grimme, WIREs Comput. Mol. Sci., 2020, 11,
     e01493. DOI: 10.1002/wcms.1493
   
   for GFN2-xTB:
   * C. Bannwarth, S. Ehlert and S. Grimme., J. Chem. Theory Comput., 2019,
     15, 1652-1671. DOI: 10.1021/acs.jctc.8b01176
   for GFN1-xTB:
   * S. Grimme, C. Bannwarth, P. Shushkov, J. Chem. Theory Comput., 2017,
     13, 1989-2009. DOI: 10.1021/acs.jctc.7b00118
   for GFN0-xTB:
   * P. Pracht, E. Caldeweyher, S. Ehlert, S. Grimme, ChemRxiv, 2019, preprint.
     DOI: 10.26434/chemrxiv.8326202.v1
   for GFN-FF:
   * S. Spicher and S. Grimme, Angew. Chem. Int. Ed., 2020, 59, 15665-15673.
     DOI: 10.1002/anie.202004239
   
   for ALPB and GBSA implicit solvation:
   * S. Ehlert, M. Stahn, S. Spicher, S. Grimme, J. Chem. Theory Comput.,
     2021, 17, 4250-4261. DOI: 10.1021/acs.jctc.1c00471
   
   for ddCOSMO and CPCM-X implicit solvation:
   * M. Stahn, S. Ehlert, S. Grimme, J. Phys. Chem. A,
     2023, XX, XXXX-XXXX. DOI: 10.1021/acs.jpca.3c04382
   
   for DFT-D4:
   * E. Caldeweyher, C. Bannwarth and S. Grimme, J. Chem. Phys., 2017,
     147, 034112. DOI: 10.1063/1.4993215
   * E. Caldeweyher, S. Ehlert, A. Hansen, H. Neugebauer, S. Spicher,
     C. Bannwarth and S. Grimme, J. Chem. Phys., 2019, 150, 154122.
     DOI: 10.1063/1.5090222
   * E. Caldeweyher, J.-M. Mewes, S. Ehlert and S. Grimme, Phys. Chem. Chem. Phys.
     2020, 22, 8499-8512. DOI: 10.1039/D0CP00502A
   
   for sTDA-xTB:
   * S. Grimme and C. Bannwarth, J. Chem. Phys., 2016, 145, 054103.
     DOI: 10.1063/1.4959605
   
   in the mass-spec context:
   * V. Asgeirsson, C. Bauer and S. Grimme, Chem. Sci., 2017, 8, 4879.
     DOI: 10.1039/c7sc00601b
   * J. Koopman and S. Grimme, ACS Omega 2019, 4, 12, 15120-15133.
     DOI: 10.1021/acsomega.9b02011
   
   for metadynamics refer to:
   * S. Grimme, J. Chem. Theory Comput., 2019, 155, 2847-2862
     DOI: 10.1021/acs.jctc.9b00143
   
   for SPH calculations refer to:
   * S. Spicher and S. Grimme, J. Chem. Theory Comput., 2021, 17, 1701-1714
     DOI: 10.1021/acs.jctc.0c01306
   
   for ONIOM refer to:
   * C. Plett, A. Katbashev, S. Ehlert, S. Grimme, M. Bursch,
     Phys. Chem. Chem. Phys., 2023, 25, 17860-17868. DOI: 10.1039/D3CP02178E
   
   for DIPRO refer to:
   * J. Kohn, N. Gildemeister, S. Grimme, D. Fazzi, A. Hansen,
     J. Chem. Phys., 2023, just accepted.
   
   for PTB refer to:
   * S. Grimme, M. Mueller, A. Hansen, J. Chem. Phys., 2023, 158, 124111.
     DOI: 10.1063/5.0137838
   
   with help from (in alphabetical order)
   P. Atkinson, C. Bannwarth, F. Bohle, G. Brandenburg, E. Caldeweyher
   M. Checinski, S. Dohm, S. Ehlert, S. Ehrlich, I. Gerasimov, C. Hölzer
   A. Katbashev, J. Kohn, J. Koopman, C. Lavigne, S. Lehtola, F. März, M. Müller,
   F. Musil, H. Neugebauer, J. Pisarek, C. Plett, P. Pracht, F. Pultar,
   J. Seibert, P. Shushkov, S. Spicher, M. Stahn, M. Steiner, T. Strunk,
   J. Stückrath, T. Rose, and J. Unsleber
   
 * started run on 2026/08/20 at 02:34:22.571     
   ID    Z sym.   atoms
    1    6 C      1, 2, 5-7
    2    7 N      3, 4
    3    1 H      8-15

           -------------------------------------------------
          |                Calculation Setup                |
           -------------------------------------------------

          program call               : /h/399/yunhengzou/micromamba/envs/el-agente/bin/xtb prodB_py.xyz --opt --gfn 2 -P 4 --chrg 0 --uhf 0
          coordinate file            : prodB_py.xyz
          omp threads                :                     4


           -------------------------------------------------
          |                 G F N 2 - x T B                 |
           -------------------------------------------------

        Reference                      10.1021/acs.jctc.8b01176
      * Hamiltonian:
        H0-scaling (s, p, d)           1.850000    2.230000    2.230000
        zeta-weighting                 0.500000
      * Dispersion:
        s8                             2.700000
        a1                             0.520000
        a2                             5.000000
        s9                             5.000000
      * Repulsion:
        kExp                           1.500000    1.000000
        rExp                           1.000000
      * Coulomb:
        alpha                          2.000000
        third order                    shell-resolved
        anisotropic                    true
        a3                             3.000000
        a5                             4.000000
        cn-shift                       1.200000
        cn-exp                         4.000000
        max-rad                        5.000000


          ...................................................
          :                      SETUP                      :
          :.................................................:
          :  # basis functions                  36          :
          :  # atomic orbitals                  36          :
          :  # shells                           22          :
          :  # electrons                        38          :
          :  max. iterations                   250          :
          :  Hamiltonian                  GFN2-xTB          :
          :  restarted?                      false          :
          :  GBSA solvation                  false          :
          :  PC potential                    false          :
          :  electronic temp.          300.0000000     K    :
          :  accuracy                    1.0000000          :
          :  -> integral cutoff          0.2500000E+02      :
          :  -> integral neglect         0.1000000E-07      :
          :  -> SCF convergence          0.1000000E-05 Eh   :
          :  -> wf. convergence          0.1000000E-03 e    :
          :  Broyden damping             0.4000000          :
          :  net charge                          0          :
          :  unpaired electrons                  0          :
          ...................................................

 iter      E             dE          RMSdq      gap      omega  full diag
   1    -20.8473503 -0.208474E+02  0.315E+00    5.19       0.0  T
   2    -20.8943576 -0.470073E-01  0.237E+00    4.81       1.0  T
   3    -20.9021350 -0.777740E-02  0.129E+00    4.90       1.0  T
   4    -20.9021193  0.156725E-04  0.393E-01    4.77       1.0  T
   5    -20.9032322 -0.111285E-02  0.914E-02    4.80       1.0  T
   6    -20.9032496 -0.173942E-04  0.398E-02    4.78       1.0  T
   7    -20.9032569 -0.735076E-05  0.208E-02    4.79       1.2  T
   8    -20.9032575 -0.616008E-06  0.432E-03    4.79       6.0  T
   9    -20.9032577 -0.142986E-06  0.149E-03    4.79      17.3  T
  10    -20.9032577 -0.799229E-08  0.620E-04    4.79      41.7  T
  11    -20.9032577 -0.718511E-09  0.201E-04    4.79     128.5  T

   *** convergence criteria satisfied after 11 iterations ***

         #    Occupation            Energy/Eh            Energy/eV
      -------------------------------------------------------------
         1        2.0000           -0.6805750             -18.5194
       ...           ...                  ...                  ...
        13        2.0000           -0.4677329             -12.7277
        14        2.0000           -0.4653542             -12.6629
        15        2.0000           -0.4512938             -12.2803
        16        2.0000           -0.4366125             -11.8808
        17        2.0000           -0.3889289             -10.5833
        18        2.0000           -0.3783590             -10.2957
        19        2.0000           -0.3767634             -10.2523 (HOMO)
        20                         -0.2006753              -5.4607 (LUMO)
        21                         -0.1438027              -3.9131
        22                         -0.0074486              -0.2027
        23                          0.0937730               2.5517
        24                          0.1084322               2.9506
       ...                                ...                  ...
        36                          0.6735729              18.3289
      -------------------------------------------------------------
                  HL-Gap            0.1760881 Eh            4.7916 eV
             Fermi-level           -0.2887193 Eh           -7.8565 eV

 SCC (total)                   0 d,  0 h,  0 min,  4.513 sec
 SCC setup                      ...        0 min,  0.086 sec (  1.900%)
 Dispersion                     ...        0 min,  0.122 sec (  2.711%)
 classical contributions        ...        0 min,  0.049 sec (  1.095%)
 integral evaluation            ...        0 min,  0.162 sec (  3.593%)
 iterations                     ...        0 min,  3.634 sec ( 80.522%)
 molecular gradient             ...        0 min,  0.459 sec ( 10.174%)
 printout                       ...        0 min,  0.000 sec (  0.003%)

         :::::::::::::::::::::::::::::::::::::::::::::::::::::
         ::                     SUMMARY                     ::
         :::::::::::::::::::::::::::::::::::::::::::::::::::::
         :: total energy             -20.618575737904 Eh    ::
         :: gradient norm              0.053536012376 Eh/a0 ::
         :: HOMO-LUMO gap              4.791601863089 eV    ::
         ::.................................................::
         :: SCC energy               -20.903251203363 Eh    ::
         :: -> isotropic ES            0.011427355596 Eh    ::
         :: -> anisotropic ES          0.003667394671 Eh    ::
         :: -> anisotropic XC          0.018002333249 Eh    ::
         :: -> dispersion             -0.009635341874 Eh    ::
         :: repulsion energy           0.284675465459 Eh    ::
         :: add. restraining           0.000000000000 Eh    ::
         :: total charge               0.000000000000 e     ::
         :::::::::::::::::::::::::::::::::::::::::::::::::::::

      ----------------------------------------------------------- 
     |                   =====================                   |
     |                        A N C O P T                        |
     |                   =====================                   |
     |               Approximate Normal Coordinate               |
     |                Rational Function Optimizer                |
      ----------------------------------------------------------- 
      ----------------------------------------------------------- 
     |                   =====================                   |
     |                        A N C O P T                        |
     |                   =====================                   |
     |               Approximate Normal Coordinate               |
     |                Rational Function Optimizer                |
      ----------------------------------------------------------- 

          ...................................................
          :                      SETUP                      :
          :.................................................:
          :   optimization level            normal          :
          :   max. optcycles                   200          :
          :   ANC micro-cycles                  20          :
          :   degrees of freedom                39          :
          :.................................................:
          :   RF solver                   davidson          :
          :   write xtbopt.log                true          :
          :   linear?                        false          :
          :   energy convergence         0.5000000E-05 Eh   :
          :   grad. convergence          0.1000000E-02 Eh/α :
          :   maxmium RF displ.          1.0000000          :
          :   Hlow (freq-cutoff)         0.1000000E-01      :
          :   Hmax (freq-cutoff)         5.0000000          :
          :   S6 in model hess.         20.0000000          :
          ...................................................

generating ANC from exact Hessian ...
Using Lindh-Hessian (1995)
 Shifting diagonal of input Hessian by    4.1042762857797606E-003
 Lowest  eigenvalues of input Hessian
    0.000000    0.000000    0.000000    0.000000    0.000000    0.000000
    0.010000    0.011922    0.017611    0.018073    0.018421    0.035140
    0.042993    0.046764    0.062020    0.071139    0.076844    0.090727
 Highest eigenvalues
    1.159243    1.573134    1.835945    1.853796    2.050939    2.081225


........................................................................
.............................. CYCLE    1 ..............................
........................................................................

 iter      E             dE          RMSdq      gap      omega  full diag
   1    -20.9032577 -0.209033E+02  0.515E-05    4.79       0.0  T
   2    -20.9032577 -0.700595E-11  0.250E-05    4.79    1033.8  T
   3    -20.9032577 -0.337508E-12  0.131E-05    4.79    1969.2  T
     SCC iter.                  ...        0 min,  1.439 sec
     gradient                   ...        0 min,  0.001 sec
 * total energy  :   -20.6185757 Eh     change       -0.2207265E-09 Eh
   gradient norm :     0.0535336 Eh/α   predicted     0.0000000E+00 (-100.00%)
   displ. norm   :     0.2268250 α      lambda       -0.6411634E-02
   maximum displ.:     0.1300147 α      in ANC's #4, #9, #22, ...

........................................................................
.............................. CYCLE    2 ..............................
........................................................................

 iter      E             dE          RMSdq      gap      omega  full diag
   1    -20.9228461 -0.209228E+02  0.241E-01    4.85       0.0  T
   2    -20.9229040 -0.579379E-04  0.136E-01    4.87       1.0  T
   3    -20.9229003  0.372307E-05  0.464E-02    4.87       1.0  T
   4    -20.9229108 -0.104679E-04  0.128E-02    4.87       2.0  T
   5    -20.9229116 -0.826674E-06  0.527E-03    4.87       4.9  T
   6    -20.9229116  0.304063E-08  0.195E-03    4.87      13.2  T
   7    -20.9229116 -0.257572E-07  0.532E-04    4.87      48.6  T
   8    -20.9229116 -0.702332E-09  0.154E-04    4.87     167.4  T
     SCC iter.                  ...        0 min,  2.727 sec
     gradient                   ...        0 min,  0.228 sec
 * total energy  :   -20.6226333 Eh     change       -0.4057602E-02 Eh
   gradient norm :     0.0179522 Eh/α   predicted    -0.3370755E-02 ( -16.93%)
   displ. norm   :     0.1611671 α      lambda       -0.9974721E-03
   maximum displ.:     0.1406308 α      in ANC's #4, #8, #22, ...

........................................................................
.............................. CYCLE    3 ..............................
........................................................................

 iter      E             dE          RMSdq      gap      omega  full diag
   1    -20.9290646 -0.209291E+02  0.112E-01    4.88       0.0  T
   2    -20.9290733 -0.875314E-05  0.644E-02    4.89       1.0  T
   3    -20.9290717  0.162676E-05  0.201E-02    4.89       1.3  T
   4    -20.9290745 -0.279727E-05  0.528E-03    4.89       4.9  T
   5    -20.9290746 -0.151161E-06  0.191E-03    4.89      13.5  T
   6    -20.9290746  0.572811E-09  0.705E-04    4.89      36.6  T
   7    -20.9290746 -0.371517E-08  0.158E-04    4.89     163.9  T
     SCC iter.                  ...        0 min,  1.402 sec
     gradient                   ...        0 min,  0.172 sec
 * total energy  :   -20.6232397 Eh     change       -0.6063325E-03 Eh
   gradient norm :     0.0067853 Eh/α   predicted    -0.5116901E-03 ( -15.61%)
   displ. norm   :     0.1030756 α      lambda       -0.2050490E-03
   maximum displ.:     0.0963985 α      in ANC's #4, #15, #2, ...

........................................................................
.............................. CYCLE    4 ..............................
........................................................................

 iter      E             dE          RMSdq      gap      omega  full diag
   1    -20.9289409 -0.209289E+02  0.631E-02    4.89       0.0  T
   2    -20.9289419 -0.100928E-05  0.352E-02    4.89       1.0  T
   3    -20.9289417  0.160651E-06  0.753E-03    4.89       3.4  T
   4    -20.9289420 -0.277313E-06  0.174E-03    4.89      14.8  T
   5    -20.9289420 -0.233655E-07  0.642E-04    4.89      40.2  T
   6    -20.9289420 -0.142705E-09  0.221E-04    4.89     117.1  T
     SCC iter.                  ...        0 min,  1.093 sec
     gradient                   ...        0 min,  0.510 sec
 * total energy  :   -20.6233778 Eh     change       -0.1381469E-03 Eh
   gradient norm :     0.0042069 Eh/α   predicted    -0.1036157E-03 ( -25.00%)
   displ. norm   :     0.0676242 α      lambda       -0.6370131E-04
   maximum displ.:     0.0568435 α      in ANC's #4, #2, #5, ...

........................................................................
.............................. CYCLE    5 ..............................
........................................................................

 iter      E             dE          RMSdq      gap      omega  full diag
   1    -20.9282013 -0.209282E+02  0.392E-02    4.89       0.0  T
   2    -20.9282021 -0.773310E-06  0.217E-02    4.89       1.2  T
   3    -20.9282019  0.207236E-06  0.771E-03    4.89       3.4  T
   4    -20.9282023 -0.375261E-06  0.910E-04    4.89      28.4  T
   5    -20.9282023 -0.203688E-08  0.449E-04    4.89      57.5  T
     SCC iter.                  ...        0 min,  0.796 sec
     gradient                   ...        0 min,  0.431 sec
 * total energy  :   -20.6234147 Eh     change       -0.3691364E-04 Eh
   gradient norm :     0.0017027 Eh/α   predicted    -0.3199492E-04 ( -13.32%)
   displ. norm   :     0.0441430 α      lambda       -0.9606260E-05
   maximum displ.:     0.0386714 α      in ANC's #2, #4, #5, ...

........................................................................
.............................. CYCLE    6 ..............................
........................................................................

 iter      E             dE          RMSdq      gap      omega  full diag
   1    -20.9280172 -0.209280E+02  0.153E-02    4.89       0.0  T
   2    -20.9280175 -0.264853E-06  0.906E-03    4.89       2.8  T
   3    -20.9280174  0.211332E-07  0.403E-03    4.89       6.4  T
   4    -20.9280175 -0.841397E-07  0.408E-04    4.89      63.3  T
   5    -20.9280175 -0.299178E-09  0.205E-04    4.89     125.9  T
     SCC iter.                  ...        0 min,  0.853 sec
     gradient                   ...        0 min,  0.263 sec
 * total energy  :   -20.6234250 Eh     change       -0.1030768E-04 Eh
   gradient norm :     0.0010926 Eh/α   predicted    -0.4808160E-05 ( -53.35%)
   displ. norm   :     0.0493747 α      lambda       -0.8852900E-05
   maximum displ.:     0.0430299 α      in ANC's #2, #5, #3, ...

........................................................................
.............................. CYCLE    7 ..............................
........................................................................

 iter      E             dE          RMSdq      gap      omega  full diag
   1    -20.9280811 -0.209281E+02  0.146E-02    4.88       0.0  T
   2    -20.9280812 -0.606466E-07  0.891E-03    4.88       2.9  T
   3    -20.9280811  0.330519E-07  0.197E-03    4.88      13.1  T
   4    -20.9280812 -0.450974E-07  0.274E-04    4.88      94.2  T
   5    -20.9280812 -0.299131E-09  0.131E-04    4.88     197.3  T
     SCC iter.                  ...        0 min,  1.495 sec
     gradient                   ...        0 min,  0.274 sec
 * total energy  :   -20.6234368 Eh     change       -0.1172991E-04 Eh
   gradient norm :     0.0017381 Eh/α   predicted    -0.4432771E-05 ( -62.21%)
   displ. norm   :     0.0762594 α      lambda       -0.1311479E-04
   maximum displ.:     0.0666651 α      in ANC's #2, #5, #3, ...

........................................................................
.............................. CYCLE    8 ..............................
........................................................................

 iter      E             dE          RMSdq      gap      omega  full diag
   1    -20.9281107 -0.209281E+02  0.216E-02    4.88       0.0  T
   2    -20.9281108 -0.221548E-07  0.129E-02    4.88       2.0  T
   3    -20.9281108 -0.576911E-08  0.608E-04    4.88      42.4  T
   4    -20.9281108 -0.731230E-09  0.317E-04    4.88      81.4  T
     SCC iter.                  ...        0 min,  2.009 sec
     gradient                   ...        0 min,  0.523 sec
 * total energy  :   -20.6234551 Eh     change       -0.1828667E-04 Eh
   gradient norm :     0.0019089 Eh/α   predicted    -0.6575007E-05 ( -64.04%)
   displ. norm   :     0.1022964 α      lambda       -0.1713023E-04
   maximum displ.:     0.0891970 α      in ANC's #2, #5, #1, ...

........................................................................
.............................. CYCLE    9 ..............................
........................................................................

 iter      E             dE          RMSdq      gap      omega  full diag
   1    -20.9280821 -0.209281E+02  0.281E-02    4.89       0.0  T
   2    -20.9280822 -0.651660E-07  0.169E-02    4.89       1.5  T
   3    -20.9280821  0.433029E-07  0.218E-03    4.89      11.8  T
   4    -20.9280822 -0.624457E-07  0.406E-04    4.89      63.5  T
   5    -20.9280822 -0.104375E-09  0.160E-04    4.89     161.1  T
     SCC iter.                  ...        0 min,  0.926 sec
     gradient                   ...        0 min,  0.357 sec
 * total energy  :   -20.6234788 Eh     change       -0.2379080E-04 Eh
   gradient norm :     0.0014055 Eh/α   predicted    -0.8605670E-05 ( -63.83%)
   displ. norm   :     0.1161441 α      lambda       -0.1909777E-04
   maximum displ.:     0.1049834 α      in ANC's #2, #5, #1, ...

........................................................................
.............................. CYCLE   10 ..............................
........................................................................

 iter      E             dE          RMSdq      gap      omega  full diag
   1    -20.9280589 -0.209281E+02  0.309E-02    4.89       0.0  T
   2    -20.9280590 -0.944164E-07  0.187E-02    4.89       1.4  T
   3    -20.9280589  0.565199E-07  0.260E-03    4.89       9.9  T
   4    -20.9280590 -0.816139E-07  0.492E-04    4.89      52.4  T
   5    -20.9280590 -0.441595E-09  0.240E-04    4.89     107.5  T
     SCC iter.                  ...        0 min,  1.329 sec
     gradient                   ...        0 min,  0.437 sec
 * total energy  :   -20.6235050 Eh     change       -0.2620098E-04 Eh
   gradient norm :     0.0010255 Eh/α   predicted    -0.9604662E-05 ( -63.34%)
   displ. norm   :     0.1243694 α      lambda       -0.1910384E-04
   maximum displ.:     0.1122017 α      in ANC's #2, #5, #1, ...

........................................................................
.............................. CYCLE   11 ..............................
........................................................................

 iter      E             dE          RMSdq      gap      omega  full diag
   1    -20.9279751 -0.209280E+02  0.332E-02    4.89       0.0  T
   2    -20.9279752 -0.861547E-07  0.200E-02    4.89       1.3  T
   3    -20.9279752  0.137874E-07  0.166E-03    4.89      15.6  T
   4    -20.9279752 -0.278911E-07  0.500E-04    4.89      51.7  T
   5    -20.9279752 -0.164426E-08  0.237E-04    4.89     108.8  T
     SCC iter.                  ...        0 min,  1.616 sec
     gradient                   ...        0 min,  0.303 sec
 * total energy  :   -20.6235310 Eh     change       -0.2598575E-04 Eh
   gradient norm :     0.0012909 Eh/α   predicted    -0.9618717E-05 ( -62.98%)
   displ. norm   :     0.1748214 α      lambda       -0.2575196E-04
   maximum displ.:     0.1603039 α      in ANC's #2, #5, #1, ...

........................................................................
.............................. CYCLE   12 ..............................
........................................................................

 iter      E             dE          RMSdq      gap      omega  full diag
   1    -20.9277168 -0.209277E+02  0.463E-02    4.89       0.0  T
   2    -20.9277169 -0.119748E-06  0.278E-02    4.89       1.0  T
   3    -20.9277169  0.978403E-08  0.208E-03    4.89      12.4  T
   4    -20.9277169 -0.349269E-07  0.810E-04    4.89      31.9  T
   5    -20.9277169 -0.404162E-08  0.340E-04    4.89      75.9  T
     SCC iter.                  ...        0 min,  0.909 sec
     gradient                   ...        0 min,  0.454 sec
 * total energy  :   -20.6235636 Eh     change       -0.3261508E-04 Eh
   gradient norm :     0.0019794 Eh/α   predicted    -0.1305269E-04 ( -59.98%)
   displ. norm   :     0.3985216 α      lambda       -0.4837030E-04
   maximum displ.:     0.3648307 α      in ANC's #2, #5, #1, ...

........................................................................
.............................. CYCLE   13 ..............................
........................................................................

 iter      E             dE          RMSdq      gap      omega  full diag
   1    -20.9249561 -0.209250E+02  0.107E-01    4.90       0.0  T
   2    -20.9249579 -0.186170E-05  0.640E-02    4.90       1.0  T
   3    -20.9249580 -0.165495E-07  0.618E-03    4.89       4.2  T
   4    -20.9249581 -0.172821E-06  0.245E-03    4.90      10.6  T
   5    -20.9249582 -0.419220E-07  0.112E-03    4.89      23.1  T
   6    -20.9249582 -0.249276E-08  0.287E-04    4.90      89.8  T
   7    -20.9249582 -0.616645E-10  0.857E-05    4.90     301.4  T
     SCC iter.                  ...        0 min,  1.352 sec
     gradient                   ...        0 min,  0.424 sec
 * total energy  :   -20.6235456 Eh     change        0.1809062E-04 Eh
   gradient norm :     0.0080306 Eh/α   predicted    -0.2589506E-04 (-243.14%)
   displ. norm   :     0.1049286 α      lambda       -0.1293043E-03
   maximum displ.:     0.0922021 α      in ANC's #2, #5, #1, ...

........................................................................
.............................. CYCLE   14 ..............................
........................................................................

 iter      E             dE          RMSdq      gap      omega  full diag
   1    -20.9278075 -0.209278E+02  0.398E-02    4.90       0.0  T
   2    -20.9278088 -0.137013E-05  0.226E-02    4.90       1.1  T
   3    -20.9278089 -0.640075E-07  0.588E-03    4.90       4.4  T
   4    -20.9278089 -0.251374E-07  0.137E-03    4.90      18.9  T
   5    -20.9278089 -0.499727E-08  0.760E-04    4.90      34.0  T
   6    -20.9278089 -0.301909E-08  0.244E-04    4.90     105.7  T
     SCC iter.                  ...        0 min,  1.453 sec
     gradient                   ...        0 min,  0.201 sec
 * total energy  :   -20.6236090 Eh     change       -0.6348688E-04 Eh
   gradient norm :     0.0023479 Eh/α   predicted    -0.6536330E-04 (   2.96%)
   displ. norm   :     0.0515706 α      lambda       -0.1170182E-04
   maximum displ.:     0.0436420 α      in ANC's #2, #5, #22, ...

........................................................................
.............................. CYCLE   15 ..............................
........................................................................

 iter      E             dE          RMSdq      gap      omega  full diag
   1    -20.9281326 -0.209281E+02  0.149E-02    4.90       0.0  T
   2    -20.9281326 -0.263483E-07  0.887E-03    4.90       2.9  T
   3    -20.9281326  0.388131E-08  0.940E-04    4.90      27.5  T
   4    -20.9281326 -0.845263E-08  0.271E-04    4.90      95.2  T
     SCC iter.                  ...        0 min,  0.562 sec
     gradient                   ...        0 min,  0.343 sec
 * total energy  :   -20.6236190 Eh     change       -0.9992430E-05 Eh
   gradient norm :     0.0018059 Eh/α   predicted    -0.5866438E-05 ( -41.29%)
   displ. norm   :     0.3559160 α      lambda       -0.3627940E-04
   maximum displ.:     0.3089168 α      in ANC's #2, #5, #22, ...

........................................................................
.............................. CYCLE   16 ..............................
........................................................................

 iter      E             dE          RMSdq      gap      omega  full diag
   1    -20.9266537 -0.209267E+02  0.954E-02    4.89       0.0  T
   2    -20.9266545 -0.779421E-06  0.573E-02    4.90       1.0  T
   3    -20.9266544  0.116340E-06  0.514E-03    4.89       5.0  T
   4    -20.9266547 -0.267229E-06  0.166E-03    4.89      15.5  T
   5    -20.9266547 -0.108700E-07  0.808E-04    4.89      32.0  T
   6    -20.9266547 -0.418321E-09  0.271E-04    4.89      95.2  T
     SCC iter.                  ...        0 min,  1.606 sec
     gradient                   ...        0 min,  0.499 sec
 * total energy  :   -20.6236370 Eh     change       -0.1799856E-04 Eh
   gradient norm :     0.0039664 Eh/α   predicted    -0.1915901E-04 (   6.45%)
   displ. norm   :     0.0674586 α      lambda       -0.3424146E-04
   maximum displ.:     0.0602152 α      in ANC's #2, #5, #22, ...

........................................................................
.............................. CYCLE   17 ..............................
........................................................................

 iter      E             dE          RMSdq      gap      omega  full diag
   1    -20.9282346 -0.209282E+02  0.240E-02    4.90       0.0  T
   2    -20.9282349 -0.346153E-06  0.138E-02    4.90       1.9  T
   3    -20.9282350 -0.172266E-07  0.284E-03    4.90       9.1  T
   4    -20.9282350 -0.692854E-08  0.709E-04    4.90      36.4  T
   5    -20.9282350 -0.129177E-08  0.401E-04    4.90      64.5  T
     SCC iter.                  ...        0 min,  1.348 sec
     gradient                   ...        0 min,  0.249 sec
 * total energy  :   -20.6236531 Eh     change       -0.1601527E-04 Eh
   gradient norm :     0.0010153 Eh/α   predicted    -0.1720028E-04 (   7.40%)
   displ. norm   :     0.0902443 α      lambda       -0.7331213E-05
   maximum displ.:     0.0776789 α      in ANC's #2, #5, #22, ...

........................................................................
.............................. CYCLE   18 ..............................
........................................................................

 iter      E             dE          RMSdq      gap      omega  full diag
   1    -20.9282446 -0.209282E+02  0.245E-02    4.90       0.0  T
   2    -20.9282446 -0.606522E-07  0.147E-02    4.90       1.8  T
   3    -20.9282446 -0.605376E-08  0.928E-04    4.90      27.8  T
   4    -20.9282447 -0.294987E-08  0.364E-04    4.90      70.9  T
     SCC iter.                  ...        0 min,  1.228 sec
     gradient                   ...        0 min,  0.273 sec
 * total energy  :   -20.6236603 Eh     change       -0.7280902E-05 Eh
   gradient norm :     0.0011212 Eh/α   predicted    -0.3679091E-05 ( -49.47%)
   displ. norm   :     0.2592798 α      lambda       -0.1418212E-04
   maximum displ.:     0.2212416 α      in ANC's #2, #5, #22, ...

........................................................................
.............................. CYCLE   19 ..............................
........................................................................

 iter      E             dE          RMSdq      gap      omega  full diag
   1    -20.9269127 -0.209269E+02  0.697E-02    4.90       0.0  T
   2    -20.9269133 -0.622912E-06  0.417E-02    4.90       1.0  T
   3    -20.9269134 -0.594963E-07  0.290E-03    4.90       8.9  T
   4    -20.9269134 -0.191639E-07  0.106E-03    4.90      24.4  T
   5    -20.9269134 -0.165453E-09  0.545E-04    4.90      47.4  T
   6    -20.9269134 -0.213079E-08  0.132E-04    4.90     196.3  T
     SCC iter.                  ...        0 min,  1.663 sec
     gradient                   ...        0 min,  0.268 sec
 * total energy  :   -20.6236547 Eh     change        0.5633358E-05 Eh
   gradient norm :     0.0041086 Eh/α   predicted    -0.7303740E-05 (-229.65%)
   displ. norm   :     0.0891127 α      lambda       -0.3032821E-04
   maximum displ.:     0.0787447 α      in ANC's #2, #5, #22, ...

........................................................................
.............................. CYCLE   20 ..............................
........................................................................

 iter      E             dE          RMSdq      gap      omega  full diag
   1    -20.9282146 -0.209282E+02  0.262E-02    4.90       0.0  T
   2    -20.9282149 -0.286439E-06  0.154E-02    4.90       1.7  T
   3    -20.9282149 -0.127826E-07  0.246E-03    4.90      10.5  T
   4    -20.9282149 -0.760327E-08  0.615E-04    4.90      42.0  T
   5    -20.9282149 -0.936527E-09  0.350E-04    4.90      73.8  T
     SCC iter.                  ...        0 min,  1.334 sec
     gradient                   ...        0 min,  0.568 sec
 * total energy  :   -20.6236699 Eh     change       -0.1520877E-04 Eh
   gradient norm :     0.0014013 Eh/α   predicted    -0.1528618E-04 (   0.51%)
   displ. norm   :     0.0351960 α      lambda       -0.3389238E-05
   maximum displ.:     0.0265284 α      in ANC's #2, #5, #22, ...
 * RMSD in coord.:     0.4580335 α      energy gain  -0.5094171E-02 Eh

generating ANC from exact Hessian ...
Using Lindh-Hessian (1995)
 Shifting diagonal of input Hessian by    3.4455575938672454E-003
 Lowest  eigenvalues of input Hessian
    0.000000    0.000000    0.000000    0.000000    0.000000    0.000000
    0.010000    0.012236    0.018007    0.018340    0.019281    0.037247
    0.047333    0.051510    0.068146    0.079111    0.087431    0.093332
 Highest eigenvalues
    1.209964    1.622014    1.819731    1.903117    2.086512    2.092959


........................................................................
.............................. CYCLE   21 ..............................
........................................................................

 iter      E             dE          RMSdq      gap      omega  full diag
   1    -20.9283628 -0.209284E+02  0.117E-02    4.90       0.0  T
   2    -20.9283629 -0.435048E-07  0.686E-03    4.90       3.8  T
   3    -20.9283629  0.623107E-09  0.105E-03    4.90      24.6  T
   4    -20.9283629 -0.546133E-08  0.324E-04    4.90      79.6  T
   5    -20.9283629 -0.445819E-09  0.162E-04    4.90     159.2  T
     SCC iter.                  ...        0 min,  1.408 sec
     gradient                   ...        0 min,  0.471 sec
 * total energy  :   -20.6236723 Eh     change       -0.2411182E-05 Eh
   gradient norm :     0.0009272 Eh/α   predicted     0.0000000E+00 (-100.00%)
   displ. norm   :     0.0079893 α      lambda       -0.1709929E-05
   maximum displ.:     0.0062163 α      in ANC's #2, #1, #4, ...

   *** GEOMETRY OPTIMIZATION CONVERGED AFTER 21 ITERATIONS ***

------------------------------------------------------------------------
 total energy gain   :        -0.0050966 Eh       -3.1982 kcal/mol
 total RMSD          :         0.4580335 a0        0.2424 Å
 total power (kW/mol):        -0.6371940 (step)   -0.3249 (real)
------------------------------------------------------------------------

 ANCopt (total)                0 d,  0 h,  0 min, 41.185 sec
 optimizer setup                ...        0 min,  0.004 sec (  0.010%)
 model hessian                  ...        0 min,  0.015 sec (  0.037%)
 ANC generation                 ...        0 min,  0.001 sec (  0.002%)
 coordinate transformation      ...        0 min,  0.000 sec (  0.001%)
 single point calculation       ...        0 min, 40.431 sec ( 98.169%)
 optimization log               ...        0 min,  0.054 sec (  0.132%)
 hessian update                 ...        0 min,  0.662 sec (  1.607%)
 rational function              ...        0 min,  0.016 sec (  0.039%)

================
 final structure:
================
15
 xtb: 6.7.1 (edcfbbe)
C            2.47660525928415        0.42129814780506        0.13966271272635
C            1.05949374214864       -0.01429527594014        0.02376286829622
N            0.05554657189640        0.83766864127962        0.15319665260380
N           -1.06251298651639        0.13357745564446       -0.00591208320298
C           -0.80021772855800       -1.16834157882895       -0.23583901694699
C            0.56711338596903       -1.30837816509191       -0.22610047761367
C           -2.34364885168920        0.77001803258699        0.08412848716780
H            2.97899435781508       -0.12803060160255        0.93442536949260
H            3.00922873431228        0.23281212920546       -0.79155283989212
H            2.51164148071229        1.48423943808425        0.36107668135822
H           -1.58408099413422       -1.88373314044356       -0.38679248567731
H            1.13484927137166       -2.20398032904954       -0.37584131891973
H           -2.92525617384261        0.59621850720992       -0.82394248414746
H           -2.90555703055105        0.39343174275723        0.94302418255295
H           -2.17219603821803        1.83749399638365        0.20670375220222

 Bond Distances (Angstroems)
 ---------------------------
C1-C2=1.4871         C1-H8=1.0889         C1-H9=1.0892         C1-H10=1.0863        C2-C1=1.4871         C2-N3=1.3231         
C2-C6=1.4070         N3-C2=1.3231         N3-N4=1.3308         N4-N3=1.3308         N4-C5=1.3478         N4-C7=1.4333         
C5-N4=1.3478         C5-C6=1.3745         C5-H11=1.0719        C6-C2=1.4070         C6-C5=1.3745         C6-H12=1.0709        
C7-N4=1.4333         C7-H13=1.0923        C7-H14=1.0933        C7-H15=1.0881        H8-C1=1.0889         H9-C1=1.0892         
H10-C1=1.0863        H11-C5=1.0719        H12-C6=1.0709        H13-C7=1.0923        H14-C7=1.0933        H15-C7=1.0881        
 C  H  Rav=1.0851 sigma=0.0082  Rmin=1.0709  Rmax=1.0933     8
 C  C  Rav=1.4228 sigma=0.0473  Rmin=1.3745  Rmax=1.4871     3
 N  C  Rav=1.3681 sigma=0.0472  Rmin=1.3231  Rmax=1.4333     3
 N  N  Rav=1.3308 sigma=0.0000  Rmin=1.3308  Rmax=1.3308     1

 selected bond angles (degree)
 --------------------
H8-C1-C2=110.41                H9-C1-C2=110.41                H9-C1-H8=108.12                H10-C1-C2=109.47               
H10-C1-H8=109.27               H10-C1-H9=109.14               N3-C2-C1=121.79                C6-C2-C1=128.08                
C6-C2-N3=110.13                N4-N3-C2=106.57                C5-N4-N3=111.59                C7-N4-N3=120.56                
C7-N4-C5=127.85                C6-C5-N4=106.91                H11-C5-N4=121.76               H11-C5-C6=131.33               
C5-C6-C2=104.81                H12-C6-C2=127.48               H12-C6-C5=127.70               H13-C7-N4=110.67               
H14-C7-N4=110.84               H14-C7-H13=108.94              H15-C7-N4=107.57               H15-C7-H13=109.49              
H15-C7-H14=109.29              

 selected dihedral angles (degree)
 ---------------------------------
N3-C2-C1-H8=121.80            N3-C2-C1-H9=241.31            N3-C2-C1-H10=  1.47           C6-C2-C1-H8=301.73            
C6-C2-C1-H9= 61.24            C6-C2-C1-H10=181.41           N4-N3-C2-C1=179.91            N4-N3-C2-C6=359.97            
C5-N4-N3-C2=  0.09            C7-N4-N3-C2=179.65            C6-C5-N4-N3=359.89            C6-C5-N4-C7=180.36            
H11-C5-N4-N3=179.94           H11-C5-N4-C7=  0.41           C5-C6-C2-C1=180.03            C5-C6-C2-N3=359.97            
H12-C6-C2-C1=  0.00           H12-C6-C2-N3=179.95           C2-C6-C5-N4=  0.08            C2-C6-C5-H11=180.03           
H12-C6-C5-N4=180.10           H12-C6-C5-H11=  0.05          H13-C7-N4-N3=124.08           H13-C7-N4-C5=303.57           
H14-C7-N4-N3=245.07           H14-C7-N4-C5= 64.56           H15-C7-N4-N3=  4.50           H15-C7-N4-C5=183.99           
           -------------------------------------------------
          |                Final Singlepoint                |
           -------------------------------------------------

          ...................................................
          :                      SETUP                      :
          :.................................................:
          :  # basis functions                  36          :
          :  # atomic orbitals                  36          :
          :  # shells                           22          :
          :  # electrons                        38          :
          :  max. iterations                   250          :
          :  Hamiltonian                  GFN2-xTB          :
          :  restarted?                      false          :
          :  GBSA solvation                  false          :
          :  PC potential                    false          :
          :  electronic temp.          300.0000000     K    :
          :  accuracy                    1.0000000          :
          :  -> integral cutoff          0.2500000E+02      :
          :  -> integral neglect         0.1000000E-07      :
          :  -> SCF convergence          0.1000000E-05 Eh   :
          :  -> wf. convergence          0.1000000E-03 e    :
          :  Broyden damping             0.4000000          :
          :  net charge                          0          :
          :  unpaired electrons                  0          :
          ...................................................

 iter      E             dE          RMSdq      gap      omega  full diag
   1    -20.9283629 -0.209284E+02  0.370E-05    4.90       0.0  T
   2    -20.9283629 -0.802203E-11  0.202E-05    4.90    1279.7  T
   3    -20.9283629 -0.413536E-11  0.100E-05    4.90    2570.8  T

   *** convergence criteria satisfied after 3 iterations ***

         #    Occupation            Energy/Eh            Energy/eV
      -------------------------------------------------------------
         1        2.0000           -0.6801904             -18.5089
       ...           ...                  ...                  ...
        13        2.0000           -0.4673481             -12.7172
        14        2.0000           -0.4652265             -12.6595
        15        2.0000           -0.4498784             -12.2418
        16        2.0000           -0.4408321             -11.9957
        17        2.0000           -0.3892237             -10.5913
        18        2.0000           -0.3792997             -10.3213
        19        2.0000           -0.3783126             -10.2944 (HOMO)
        20                         -0.1983282              -5.3968 (LUMO)
        21                         -0.1455365              -3.9602
        22                          0.0143620               0.3908
        23                          0.1143525               3.1117
        24                          0.1256574               3.4193
       ...                                ...                  ...
        36                          0.6797711              18.4975
      -------------------------------------------------------------
                  HL-Gap            0.1799844 Eh            4.8976 eV
             Fermi-level           -0.2883204 Eh           -7.8456 eV

 SCC (total)                   0 d,  0 h,  0 min,  1.395 sec
 SCC setup                      ...        0 min,  0.013 sec (  0.920%)
 Dispersion                     ...        0 min,  0.105 sec (  7.498%)
 classical contributions        ...        0 min,  0.025 sec (  1.824%)
 integral evaluation            ...        0 min,  0.192 sec ( 13.783%)
 iterations                     ...        0 min,  0.617 sec ( 44.212%)
 molecular gradient             ...        0 min,  0.435 sec ( 31.181%)
 printout                       ...        0 min,  0.008 sec (  0.580%)

         :::::::::::::::::::::::::::::::::::::::::::::::::::::
         ::                     SUMMARY                     ::
         :::::::::::::::::::::::::::::::::::::::::::::::::::::
         :: total energy             -20.623672319972 Eh    ::
         :: gradient norm              0.000926959148 Eh/a0 ::
         :: HOMO-LUMO gap              4.897626007753 eV    ::
         ::.................................................::
         :: SCC energy               -20.928354131232 Eh    ::
         :: -> isotropic ES            0.011239968714 Eh    ::
         :: -> anisotropic ES          0.002834863194 Eh    ::
         :: -> anisotropic XC          0.017051024675 Eh    ::
         :: -> dispersion             -0.009674619368 Eh    ::
         :: repulsion energy           0.304681811260 Eh    ::
         :: add. restraining           0.000000000000 Eh    ::
         :: total charge               0.000000000000 e     ::
         :::::::::::::::::::::::::::::::::::::::::::::::::::::

           -------------------------------------------------
          |                Property Printout                |
           -------------------------------------------------

    * Orbital Energies and Occupations

         #    Occupation            Energy/Eh            Energy/eV
      -------------------------------------------------------------
         1        2.0000           -0.6801904             -18.5089
       ...           ...                  ...                  ...
         7        2.0000           -0.5485048             -14.9256
         8        2.0000           -0.5456955             -14.8491
         9        2.0000           -0.5311560             -14.4535
        10        2.0000           -0.4949038             -13.4670
        11        2.0000           -0.4914444             -13.3729
        12        2.0000           -0.4836545             -13.1609
        13        2.0000           -0.4673481             -12.7172
        14        2.0000           -0.4652265             -12.6595
        15        2.0000           -0.4498784             -12.2418
        16        2.0000           -0.4408321             -11.9957
        17        2.0000           -0.3892237             -10.5913
        18        2.0000           -0.3792997             -10.3213
        19        2.0000           -0.3783126             -10.2944 (HOMO)
        20                         -0.1983282              -5.3968 (LUMO)
        21                         -0.1455365              -3.9602
        22                          0.0143620               0.3908
        23                          0.1143525               3.1117
        24                          0.1256574               3.4193
        25                          0.1425565               3.8792
        26                          0.1783798               4.8540
        27                          0.1841195               5.0101
        28                          0.1966125               5.3501
        29                          0.1990132               5.4154
        30                          0.2130110               5.7963
       ...                                ...                  ...
        36                          0.6797711              18.4975
      -------------------------------------------------------------
                  HL-Gap            0.1799844 Eh            4.8976 eV
             Fermi-level           -0.2883204 Eh           -7.8456 eV

     #   Z          covCN         q      C6AA      α(0)
     1   6 C        3.755    -0.109    22.633     6.784
     2   6 C        3.153     0.068    26.207     8.372
     3   7 N        2.015    -0.254    27.403     7.764
     4   7 N        3.033     0.082    19.814     6.611
     5   6 C        3.023    -0.022    28.535     8.762
     6   6 C        3.025    -0.085    30.100     8.999
     7   6 C        3.691    -0.061    21.857     6.690
     8   1 H        0.925     0.042     2.418     2.432
     9   1 H        0.925     0.043     2.415     2.430
    10   1 H        0.925     0.053     2.280     2.362
    11   1 H        0.926     0.026     2.638     2.540
    12   1 H        0.926     0.020     2.731     2.584
    13   1 H        0.924     0.057     2.236     2.339
    14   1 H        0.924     0.057     2.237     2.339
    15   1 H        0.925     0.083     1.949     2.183

 Mol. C6AA /au·bohr⁶  :       2235.622283
 Mol. C8AA /au·bohr⁸  :      50347.498659
 Mol. α(0) /au        :         73.191313


Wiberg/Mayer (AO) data.
largest (>0.10) Wiberg bond orders for each atom

 ---------------------------------------------------------------------------
     #   Z sym  total        # sym  WBO       # sym  WBO       # sym  WBO
 ---------------------------------------------------------------------------
     1   6 C    3.997 --     2 C    1.027    10 H    0.984     8 H    0.974
                             9 H    0.973
     2   6 C    3.977 --     3 N    1.484     6 C    1.339     1 C    1.027
     3   7 N    2.956 --     2 C    1.484     4 N    1.198     5 C    0.154
     4   7 N    3.669 --     5 C    1.277     3 N    1.198     7 C    1.005
     5   6 C    3.958 --     6 C    1.511     4 N    1.277    11 H    0.969
                             3 N    0.154
     6   6 C    3.977 --     5 C    1.511     2 C    1.339    12 H    0.975
     7   6 C    3.971 --     4 N    1.005    15 H    0.979    13 H    0.976
                            14 H    0.974
     8   1 H    0.998 --     1 C    0.974
     9   1 H    0.998 --     1 C    0.973
    10   1 H    0.997 --     1 C    0.984
    11   1 H    0.999 --     5 C    0.969
    12   1 H    1.000 --     6 C    0.975
    13   1 H    0.996 --     7 C    0.976
    14   1 H    0.996 --     7 C    0.974
    15   1 H    0.993 --     7 C    0.979
 ---------------------------------------------------------------------------

Topologies differ in total number of bonds
Writing topology from bond orders to xtbtopo.mol

molecular dipole:
                 x           y           z       tot (Debye)
 q only:       -0.623       0.075      -0.005
   full:       -0.689      -0.328      -0.078       1.950
molecular quadrupole (traceless):
                xx          xy          yy          xz          yz          zz
 q only:        5.315      -1.291      -2.506      -0.013       0.010      -2.809
  q+dip:        6.118      -0.977      -2.727       0.060       0.091      -3.391
   full:        6.043      -1.028      -3.485       0.029      -0.210      -2.559

           -------------------------------------------------
          |                Geometry Summary                 |
           -------------------------------------------------

      molecular mass/u    :       96.1306119
   center of mass at/Å    :       -0.0263582      -0.0174276      -0.0046221
  moments of inertia/u·Å² :        0.7567852E+02   0.2345344E+03   0.3038893E+03
rotational constants/cm⁻¹ :        0.2227532E+00   0.7187701E-01   0.5547294E-01

 * 15 selected distances

     #   Z          #   Z                                           value/Å
     1   6 C        2   6 C                                       1.4870709 (max)
     2   6 C        3   7 N                                       1.3230668
     3   7 N        4   7 N                                       1.3308334
     4   7 N        5   6 C                                       1.3478348
     2   6 C        6   6 C                                       1.4069545
     5   6 C        6   6 C                                       1.3745180
     4   7 N        7   6 C                                       1.4333434
     1   6 C        8   1 H                                       1.0889466
     1   6 C        9   1 H                                       1.0892095
     1   6 C       10   1 H                                       1.0863223
     5   6 C       11   1 H                                       1.0719206
     6   6 C       12   1 H                                       1.0709107 (min)
     7   6 C       13   1 H                                       1.0922758
     7   6 C       14   1 H                                       1.0932795
     7   6 C       15   1 H                                       1.0880836

 * 4 distinct bonds (by element types)

   Z      Z             #   av. dist./Å        max./Å        min./Å
   1 H    6 C           8     1.0851186     1.0932795     1.0709107
   6 C    6 C           3     1.4228478     1.4870709     1.3745180
   6 C    7 N           3     1.3680817     1.4333434     1.3230668
   7 N    7 N           1     1.3308334     1.3308334     1.3308334


optimized geometry written to: xtbopt.xyz


           -------------------------------------------------
          | TOTAL ENERGY              -20.623672319972 Eh   |
          | GRADIENT NORM               0.000926959148 Eh/α |
          | HOMO-LUMO GAP               4.897626007753 eV   |
           -------------------------------------------------

------------------------------------------------------------------------
 * finished run on 2026/08/20 at 02:35:10.216     
------------------------------------------------------------------------
 total:
 * wall-time:     0 d,  0 h,  0 min, 47.646 sec
 *  cpu-time:     0 d,  0 h,  1 min, 12.513 sec
 * ratio c/w:     1.522 speedup
 SCF:
 * wall-time:     0 d,  0 h,  0 min,  4.513 sec
 *  cpu-time:     0 d,  0 h,  0 min,  5.974 sec
 * ratio c/w:     1.324 speedup
 ANC optimizer:
 * wall-time:     0 d,  0 h,  0 min, 42.609 sec
 *  cpu-time:     0 d,  0 h,  1 min,  6.106 sec
 * ratio c/w:     1.551 speedup

