      -----------------------------------------------------------      
     |                   =====================                   |     
     |                           x T B                           |     
     |                   =====================                   |     
     |                         S. Grimme                         |     
     |          Mulliken Center for Theoretical Chemistry        |     
     |                    University of Bonn                     |     
      -----------------------------------------------------------      

   * xtb version 6.7.1 (edcfbbe) compiled by 'conda@3ef47c1a292c' on 2024-11-25

   xtb is free software: you can redistribute it and/or modify it under
   the terms of the GNU Lesser General Public License as published by
   the Free Software Foundation, either version 3 of the License, or
   (at your option) any later version.
   
   xtb is distributed in the hope that it will be useful,
   but WITHOUT ANY WARRANTY; without even the implied warranty of
   MERCHANTABILITY or FITNESS FOR A PARTICULAR PURPOSE.  See the
   GNU Lesser General Public License for more details.
   
   Cite this work as:
   * C. Bannwarth, E. Caldeweyher, S. Ehlert, A. Hansen, P. Pracht,
     J. Seibert, S. Spicher, S. Grimme, WIREs Comput. Mol. Sci., 2020, 11,
     e01493. DOI: 10.1002/wcms.1493
   
   for GFN2-xTB:
   * C. Bannwarth, S. Ehlert and S. Grimme., J. Chem. Theory Comput., 2019,
     15, 1652-1671. DOI: 10.1021/acs.jctc.8b01176
   for GFN1-xTB:
   * S. Grimme, C. Bannwarth, P. Shushkov, J. Chem. Theory Comput., 2017,
     13, 1989-2009. DOI: 10.1021/acs.jctc.7b00118
   for GFN0-xTB:
   * P. Pracht, E. Caldeweyher, S. Ehlert, S. Grimme, ChemRxiv, 2019, preprint.
     DOI: 10.26434/chemrxiv.8326202.v1
   for GFN-FF:
   * S. Spicher and S. Grimme, Angew. Chem. Int. Ed., 2020, 59, 15665-15673.
     DOI: 10.1002/anie.202004239
   
   for ALPB and GBSA implicit solvation:
   * S. Ehlert, M. Stahn, S. Spicher, S. Grimme, J. Chem. Theory Comput.,
     2021, 17, 4250-4261. DOI: 10.1021/acs.jctc.1c00471
   
   for ddCOSMO and CPCM-X implicit solvation:
   * M. Stahn, S. Ehlert, S. Grimme, J. Phys. Chem. A,
     2023, XX, XXXX-XXXX. DOI: 10.1021/acs.jpca.3c04382
   
   for DFT-D4:
   * E. Caldeweyher, C. Bannwarth and S. Grimme, J. Chem. Phys., 2017,
     147, 034112. DOI: 10.1063/1.4993215
   * E. Caldeweyher, S. Ehlert, A. Hansen, H. Neugebauer, S. Spicher,
     C. Bannwarth and S. Grimme, J. Chem. Phys., 2019, 150, 154122.
     DOI: 10.1063/1.5090222
   * E. Caldeweyher, J.-M. Mewes, S. Ehlert and S. Grimme, Phys. Chem. Chem. Phys.
     2020, 22, 8499-8512. DOI: 10.1039/D0CP00502A
   
   for sTDA-xTB:
   * S. Grimme and C. Bannwarth, J. Chem. Phys., 2016, 145, 054103.
     DOI: 10.1063/1.4959605
   
   in the mass-spec context:
   * V. Asgeirsson, C. Bauer and S. Grimme, Chem. Sci., 2017, 8, 4879.
     DOI: 10.1039/c7sc00601b
   * J. Koopman and S. Grimme, ACS Omega 2019, 4, 12, 15120-15133.
     DOI: 10.1021/acsomega.9b02011
   
   for metadynamics refer to:
   * S. Grimme, J. Chem. Theory Comput., 2019, 155, 2847-2862
     DOI: 10.1021/acs.jctc.9b00143
   
   for SPH calculations refer to:
   * S. Spicher and S. Grimme, J. Chem. Theory Comput., 2021, 17, 1701-1714
     DOI: 10.1021/acs.jctc.0c01306
   
   for ONIOM refer to:
   * C. Plett, A. Katbashev, S. Ehlert, S. Grimme, M. Bursch,
     Phys. Chem. Chem. Phys., 2023, 25, 17860-17868. DOI: 10.1039/D3CP02178E
   
   for DIPRO refer to:
   * J. Kohn, N. Gildemeister, S. Grimme, D. Fazzi, A. Hansen,
     J. Chem. Phys., 2023, just accepted.
   
   for PTB refer to:
   * S. Grimme, M. Mueller, A. Hansen, J. Chem. Phys., 2023, 158, 124111.
     DOI: 10.1063/5.0137838
   
   with help from (in alphabetical order)
   P. Atkinson, C. Bannwarth, F. Bohle, G. Brandenburg, E. Caldeweyher
   M. Checinski, S. Dohm, S. Ehlert, S. Ehrlich, I. Gerasimov, C. Hölzer
   A. Katbashev, J. Kohn, J. Koopman, C. Lavigne, S. Lehtola, F. März, M. Müller,
   F. Musil, H. Neugebauer, J. Pisarek, C. Plett, P. Pracht, F. Pultar,
   J. Seibert, P. Shushkov, S. Spicher, M. Stahn, M. Steiner, T. Strunk,
   J. Stückrath, T. Rose, and J. Unsleber
   
 * started run on 2026/08/20 at 02:37:29.520     
   ID    Z sym.   atoms
    1    8 O      1
    2   16 S      2
    3    7 N      3, 5
    4    6 C      4, 6-9
    5    1 H      10-17

           -------------------------------------------------
          |                Calculation Setup                |
           -------------------------------------------------

          program call               : /h/399/yunhengzou/micromamba/envs/el-agente/bin/xtb subB_guess.xyz --opt --gfn 2 -P 4 --chrg 0 --uhf 0
          coordinate file            : subB_guess.xyz
          omp threads                :                     4


           -------------------------------------------------
          |                 G F N 2 - x T B                 |
           -------------------------------------------------

        Reference                      10.1021/acs.jctc.8b01176
      * Hamiltonian:
        H0-scaling (s, p, d)           1.850000    2.230000    2.230000
        zeta-weighting                 0.500000
      * Dispersion:
        s8                             2.700000
        a1                             0.520000
        a2                             5.000000
        s9                             5.000000
      * Repulsion:
        kExp                           1.500000    1.000000
        rExp                           1.000000
      * Coulomb:
        alpha                          2.000000
        third order                    shell-resolved
        anisotropic                    true
        a3                             3.000000
        a5                             4.000000
        cn-shift                       1.200000
        cn-exp                         4.000000
        max-rad                        5.000000


          ...................................................
          :                      SETUP                      :
          :.................................................:
          :  # basis functions                  50          :
          :  # atomic orbitals                  49          :
          :  # shells                           27          :
          :  # electrons                        50          :
          :  max. iterations                   250          :
          :  Hamiltonian                  GFN2-xTB          :
          :  restarted?                      false          :
          :  GBSA solvation                  false          :
          :  PC potential                    false          :
          :  electronic temp.          300.0000000     K    :
          :  accuracy                    1.0000000          :
          :  -> integral cutoff          0.2500000E+02      :
          :  -> integral neglect         0.1000000E-07      :
          :  -> SCF convergence          0.1000000E-05 Eh   :
          :  -> wf. convergence          0.1000000E-03 e    :
          :  Broyden damping             0.4000000          :
          :  net charge                          0          :
          :  unpaired electrons                  0          :
          ...................................................

 iter      E             dE          RMSdq      gap      omega  full diag
   1    -28.0043685 -0.280044E+02  0.500E+00    2.95       0.0  T
   2    -28.1009717 -0.966032E-01  0.303E+00    2.35       1.0  T
   3    -28.0996031  0.136858E-02  0.153E+00    2.34       1.0  T
   4    -28.0840116  0.155915E-01  0.135E+00    2.55       1.0  T
   5    -28.1071255 -0.231139E-01  0.271E-01    2.40       1.0  T
   6    -28.1071474 -0.218255E-04  0.109E-01    2.37       1.0  T
   7    -28.1072857 -0.138371E-03  0.502E-02    2.38       1.0  T
   8    -28.1073011 -0.154100E-04  0.225E-02    2.39       1.1  T
   9    -28.1073015 -0.367588E-06  0.114E-02    2.38       2.1  T
  10    -28.1073020 -0.539211E-06  0.273E-03    2.38       8.9  T
  11    -28.1073021 -0.150994E-07  0.154E-03    2.38      15.8  T
  12    -28.1073021 -0.145160E-08  0.368E-04    2.38      65.9  T
  13    -28.1073021 -0.330026E-09  0.121E-04    2.38     199.9  T

   *** convergence criteria satisfied after 13 iterations ***

         #    Occupation            Energy/Eh            Energy/eV
      -------------------------------------------------------------
         1        2.0000           -0.7332668             -19.9532
       ...           ...                  ...                  ...
        19        2.0000           -0.4626562             -12.5895
        20        2.0000           -0.4501167             -12.2483
        21        2.0000           -0.4288141             -11.6686
        22        2.0000           -0.4165184             -11.3340
        23        2.0000           -0.3738874             -10.1740
        24        2.0000           -0.3651749              -9.9369
        25        2.0000           -0.3547002              -9.6519 (HOMO)
        26                         -0.2670540              -7.2669 (LUMO)
        27                         -0.1997330              -5.4350
        28                         -0.1776857              -4.8351
        29                         -0.1324839              -3.6051
        30                         -0.1077038              -2.9308
       ...                                ...                  ...
        49                          0.9583863              26.0790
      -------------------------------------------------------------
                  HL-Gap            0.0876463 Eh            2.3850 eV
             Fermi-level           -0.3108771 Eh           -8.4594 eV

 SCC (total)                   0 d,  0 h,  0 min,  3.619 sec
 SCC setup                      ...        0 min,  0.024 sec (  0.654%)
 Dispersion                     ...        0 min,  0.057 sec (  1.569%)
 classical contributions        ...        0 min,  0.017 sec (  0.470%)
 integral evaluation            ...        0 min,  0.083 sec (  2.281%)
 iterations                     ...        0 min,  3.356 sec ( 92.740%)
 molecular gradient             ...        0 min,  0.083 sec (  2.281%)
 printout                       ...        0 min,  0.000 sec (  0.005%)

         :::::::::::::::::::::::::::::::::::::::::::::::::::::
         ::                     SUMMARY                     ::
         :::::::::::::::::::::::::::::::::::::::::::::::::::::
         :: total energy             -27.783292187314 Eh    ::
         :: gradient norm              0.143225744573 Eh/a0 ::
         :: HOMO-LUMO gap              2.384976266483 eV    ::
         ::.................................................::
         :: SCC energy               -28.107281765057 Eh    ::
         :: -> isotropic ES            0.057030349938 Eh    ::
         :: -> anisotropic ES          0.000861930070 Eh    ::
         :: -> anisotropic XC          0.017945950821 Eh    ::
         :: -> dispersion             -0.014909276506 Eh    ::
         :: repulsion energy           0.323989577743 Eh    ::
         :: add. restraining           0.000000000000 Eh    ::
         :: total charge               0.000000000000 e     ::
         :::::::::::::::::::::::::::::::::::::::::::::::::::::

      ----------------------------------------------------------- 
     |                   =====================                   |
     |                        A N C O P T                        |
     |                   =====================                   |
     |               Approximate Normal Coordinate               |
     |                Rational Function Optimizer                |
      ----------------------------------------------------------- 
      ----------------------------------------------------------- 
     |                   =====================                   |
     |                        A N C O P T                        |
     |                   =====================                   |
     |               Approximate Normal Coordinate               |
     |                Rational Function Optimizer                |
      ----------------------------------------------------------- 

          ...................................................
          :                      SETUP                      :
          :.................................................:
          :   optimization level            normal          :
          :   max. optcycles                   200          :
          :   ANC micro-cycles                  20          :
          :   degrees of freedom                45          :
          :.................................................:
          :   RF solver                   davidson          :
          :   write xtbopt.log                true          :
          :   linear?                        false          :
          :   energy convergence         0.5000000E-05 Eh   :
          :   grad. convergence          0.1000000E-02 Eh/α :
          :   maxmium RF displ.          1.0000000          :
          :   Hlow (freq-cutoff)         0.1000000E-01      :
          :   Hmax (freq-cutoff)         5.0000000          :
          :   S6 in model hess.         20.0000000          :
          ...................................................

generating ANC from exact Hessian ...
Using Lindh-Hessian (1995)
 Shifting diagonal of input Hessian by    6.7234399452580163E-003
 Lowest  eigenvalues of input Hessian
    0.000000    0.000000    0.000000    0.000000    0.000000    0.000000
    0.010000    0.014783    0.018139    0.021015    0.022401    0.028969
    0.032504    0.038158    0.043146    0.065178    0.072769    0.077702
 Highest eigenvalues
    1.367503    1.552211    1.888929    2.160247    2.357900    2.541063


........................................................................
.............................. CYCLE    1 ..............................
........................................................................

 iter      E             dE          RMSdq      gap      omega  full diag
   1    -28.1073021 -0.281073E+02  0.478E-05    2.38       0.0  T
   2    -28.1073021 -0.625278E-11  0.285E-05    2.38     852.4  T
   3    -28.1073021 -0.486722E-12  0.179E-05    2.38    1357.9  T
     SCC iter.                  ...        0 min,  0.281 sec
     gradient                   ...        0 min,  0.275 sec
 * total energy  :   -27.7832922 Eh     change       -0.2419753E-10 Eh
   gradient norm :     0.1432261 Eh/α   predicted     0.0000000E+00 (-100.00%)
   displ. norm   :     0.5828882 α      lambda       -0.6385897E-01
   maximum displ.:     0.3351564 α      in ANC's #11, #13, #22, ...

........................................................................
.............................. CYCLE    2 ..............................
........................................................................

 iter      E             dE          RMSdq      gap      omega  full diag
   1    -28.1482569 -0.281483E+02  0.631E-01    2.26       0.0  T
   2    -28.1490871 -0.830221E-03  0.410E-01    2.31       1.0  T
   3    -28.1491341 -0.470327E-04  0.286E-01    2.28       1.0  T
   4    -28.1498560 -0.721846E-03  0.127E-01    2.30       1.0  T
   5    -28.1499707 -0.114715E-03  0.316E-02    2.29       1.0  T
   6    -28.1499712 -0.564451E-06  0.217E-02    2.29       1.1  T
   7    -28.1499753 -0.403427E-05  0.668E-03    2.29       3.6  T
   8    -28.1499754 -0.106399E-06  0.280E-03    2.29       8.7  T
   9    -28.1499754 -0.826057E-08  0.943E-04    2.29      25.7  T
  10    -28.1499754 -0.152549E-08  0.375E-04    2.29      64.7  T
     SCC iter.                  ...        0 min,  1.721 sec
     gradient                   ...        0 min,  0.343 sec
 * total energy  :   -27.8324018 Eh     change       -0.4910957E-01 Eh
   gradient norm :     0.0766479 Eh/α   predicted    -0.4277782E-01 ( -12.89%)
   displ. norm   :     0.5542398 α      lambda       -0.3401663E-01
   maximum displ.:     0.2391199 α      in ANC's #11, #22, #10, ...

........................................................................
.............................. CYCLE    3 ..............................
........................................................................

 iter      E             dE          RMSdq      gap      omega  full diag
   1    -28.1640011 -0.281640E+02  0.631E-01    2.21       0.0  T
   2    -28.1640387 -0.375463E-04  0.465E-01    2.23       1.0  T
   3    -28.1643943 -0.355585E-03  0.309E-01    2.21       1.0  T
   4    -28.1652274 -0.833153E-03  0.969E-02    2.22       1.0  T
   5    -28.1652914 -0.639977E-04  0.284E-02    2.22       1.0  T
   6    -28.1652951 -0.371854E-05  0.177E-02    2.22       1.4  T
   7    -28.1652977 -0.255535E-05  0.441E-03    2.22       5.5  T
   8    -28.1652977 -0.283476E-07  0.201E-03    2.22      12.1  T
   9    -28.1652977 -0.427152E-08  0.683E-04    2.22      35.5  T
  10    -28.1652977 -0.796184E-09  0.291E-04    2.22      83.4  T
     SCC iter.                  ...        0 min,  3.685 sec
     gradient                   ...        0 min,  0.204 sec
 * total energy  :   -27.8545728 Eh     change       -0.2217102E-01 Eh
   gradient norm :     0.0481201 Eh/α   predicted    -0.2223295E-01 (   0.28%)
   displ. norm   :     0.3157593 α      lambda       -0.9291565E-02
   maximum displ.:     0.1114101 α      in ANC's #10, #8, #9, ...

........................................................................
.............................. CYCLE    4 ..............................
........................................................................

 iter      E             dE          RMSdq      gap      omega  full diag
   1    -28.1720791 -0.281721E+02  0.310E-01    2.20       0.0  T
   2    -28.1720888 -0.971169E-05  0.202E-01    2.20       1.0  T
   3    -28.1718662  0.222678E-03  0.161E-01    2.19       1.0  T
   4    -28.1721898 -0.323675E-03  0.403E-02    2.20       1.0  T
   5    -28.1722053 -0.154813E-04  0.109E-02    2.20       2.2  T
   6    -28.1722053  0.287226E-07  0.747E-03    2.20       3.2  T
   7    -28.1722059 -0.659991E-06  0.173E-03    2.20      14.1  T
   8    -28.1722059 -0.313642E-08  0.774E-04    2.20      31.3  T
   9    -28.1722059 -0.616538E-09  0.240E-04    2.20     101.2  T
     SCC iter.                  ...        0 min,  4.992 sec
     gradient                   ...        0 min,  0.329 sec
 * total energy  :   -27.8613605 Eh     change       -0.6787732E-02 Eh
   gradient norm :     0.0407549 Eh/α   predicted    -0.5108991E-02 ( -24.73%)
   displ. norm   :     0.3463011 α      lambda       -0.7032403E-02
   maximum displ.:     0.1505698 α      in ANC's #9, #8, #10, ...

........................................................................
.............................. CYCLE    5 ..............................
........................................................................

 iter      E             dE          RMSdq      gap      omega  full diag
   1    -28.1802520 -0.281803E+02  0.247E-01    2.21       0.0  T
   2    -28.1802790 -0.270879E-04  0.140E-01    2.20       1.0  T
   3    -28.1802604  0.186939E-04  0.540E-02    2.20       1.0  T
   4    -28.1802645 -0.416154E-05  0.369E-02    2.20       1.0  T
   5    -28.1802844 -0.199154E-04  0.981E-03    2.20       2.5  T
   6    -28.1802847 -0.295463E-06  0.363E-03    2.20       6.7  T
   7    -28.1802849 -0.169355E-06  0.147E-03    2.20      16.5  T
   8    -28.1802849 -0.704571E-08  0.626E-04    2.20      38.8  T
   9    -28.1802849 -0.533372E-09  0.205E-04    2.20     118.3  T
     SCC iter.                  ...        0 min,  6.000 sec
     gradient                   ...        0 min,  0.377 sec
 * total energy  :   -27.8665298 Eh     change       -0.5169309E-02 Eh
   gradient norm :     0.0274627 Eh/α   predicted    -0.3937885E-02 ( -23.82%)
   displ. norm   :     0.3847085 α      lambda       -0.4575904E-02
   maximum displ.:     0.1862429 α      in ANC's #9, #4, #8, ...

........................................................................
.............................. CYCLE    6 ..............................
........................................................................

 iter      E             dE          RMSdq      gap      omega  full diag
   1    -28.1858881 -0.281859E+02  0.189E-01    2.24       0.0  T
   2    -28.1859010 -0.129634E-04  0.107E-01    2.23       1.0  T
   3    -28.1858817  0.193666E-04  0.440E-02    2.23       1.0  T
   4    -28.1858927 -0.110620E-04  0.305E-02    2.23       1.0  T
   5    -28.1859049 -0.121769E-04  0.649E-03    2.23       3.7  T
   6    -28.1859049 -0.203523E-07  0.156E-03    2.23      15.6  T
   7    -28.1859049 -0.260403E-08  0.100E-03    2.23      24.2  T
   8    -28.1859049 -0.459249E-08  0.580E-04    2.23      41.8  T
   9    -28.1859049 -0.189086E-08  0.146E-04    2.23     166.6  T
     SCC iter.                  ...        0 min,  8.806 sec
     gradient                   ...        0 min,  0.346 sec
 * total energy  :   -27.8697549 Eh     change       -0.3225103E-02 Eh
   gradient norm :     0.0227151 Eh/α   predicted    -0.2626569E-02 ( -18.56%)
   displ. norm   :     0.2920415 α      lambda       -0.2223678E-02
   maximum displ.:     0.1350493 α      in ANC's #4, #9, #6, ...

........................................................................
.............................. CYCLE    7 ..............................
........................................................................

 iter      E             dE          RMSdq      gap      omega  full diag
   1    -28.1924012 -0.281924E+02  0.143E-01    2.26       0.0  T
   2    -28.1924135 -0.122670E-04  0.790E-02    2.26       1.0  T
   3    -28.1924120  0.151372E-05  0.209E-02    2.26       1.2  T
   4    -28.1924109  0.106279E-05  0.185E-02    2.26       1.3  T
   5    -28.1924152 -0.425267E-05  0.520E-03    2.26       4.7  T
   6    -28.1924152  0.736171E-08  0.312E-03    2.26       7.8  T
   7    -28.1924153 -0.126899E-06  0.891E-04    2.26      27.2  T
   8    -28.1924153 -0.135545E-08  0.423E-04    2.26      57.3  T
     SCC iter.                  ...        0 min,  7.261 sec
     gradient                   ...        0 min,  0.335 sec
 * total energy  :   -27.8710356 Eh     change       -0.1280722E-02 Eh
   gradient norm :     0.0165198 Eh/α   predicted    -0.1206666E-02 (  -5.78%)
   displ. norm   :     0.3239097 α      lambda       -0.1239027E-02
   maximum displ.:     0.1760046 α      in ANC's #4, #9, #1, ...

........................................................................
.............................. CYCLE    8 ..............................
........................................................................

 iter      E             dE          RMSdq      gap      omega  full diag
   1    -28.1886820 -0.281887E+02  0.162E-01    2.28       0.0  T
   2    -28.1886808  0.119832E-05  0.911E-02    2.28       1.0  T
   3    -28.1885812  0.995898E-04  0.901E-02    2.28       1.0  T
   4    -28.1886982 -0.117003E-03  0.128E-02    2.28       1.9  T
   5    -28.1886980  0.180908E-06  0.549E-03    2.28       4.4  T
   6    -28.1886983 -0.276363E-06  0.250E-03    2.28       9.7  T
   7    -28.1886984 -0.720594E-07  0.854E-04    2.28      28.4  T
   8    -28.1886984 -0.549896E-09  0.287E-04    2.28      84.5  T
     SCC iter.                  ...        0 min,  4.860 sec
     gradient                   ...        0 min,  0.295 sec
 * total energy  :   -27.8711909 Eh     change       -0.1552394E-03 Eh
   gradient norm :     0.0192663 Eh/α   predicted    -0.6845141E-03 ( 340.94%)
   displ. norm   :     0.0976423 α      lambda       -0.7290527E-03
   maximum displ.:     0.0521219 α      in ANC's #9, #8, #7, ...

........................................................................
.............................. CYCLE    9 ..............................
........................................................................

 iter      E             dE          RMSdq      gap      omega  full diag
   1    -28.1922550 -0.281923E+02  0.613E-02    2.28       0.0  T
   2    -28.1922574 -0.236479E-05  0.362E-02    2.28       1.0  T
   3    -28.1922523  0.509308E-05  0.222E-02    2.28       1.1  T
   4    -28.1922570 -0.470877E-05  0.956E-03    2.28       2.5  T
   5    -28.1922583 -0.129882E-05  0.170E-03    2.28      14.3  T
   6    -28.1922583  0.705445E-08  0.111E-03    2.28      21.9  T
   7    -28.1922583 -0.146920E-07  0.304E-04    2.28      79.7  T
   8    -28.1922583 -0.386770E-09  0.112E-04    2.28     217.3  T
     SCC iter.                  ...        0 min,  2.668 sec
     gradient                   ...        0 min,  0.372 sec
 * total energy  :   -27.8716189 Eh     change       -0.4280040E-03 Eh
   gradient norm :     0.0080584 Eh/α   predicted    -0.3680018E-03 ( -14.02%)
   displ. norm   :     0.0884216 α      lambda       -0.1482129E-03
   maximum displ.:     0.0693823 α      in ANC's #1, #7, #4, ...

........................................................................
.............................. CYCLE   10 ..............................
........................................................................

 iter      E             dE          RMSdq      gap      omega  full diag
   1    -28.1926841 -0.281927E+02  0.377E-02    2.29       0.0  T
   2    -28.1926844 -0.249376E-06  0.224E-02    2.29       1.1  T
   3    -28.1926799  0.447617E-05  0.206E-02    2.29       1.2  T
   4    -28.1926856 -0.568379E-05  0.330E-03    2.29       7.3  T
   5    -28.1926856 -0.404556E-07  0.178E-03    2.29      13.7  T
   6    -28.1926856 -0.299554E-08  0.964E-04    2.29      25.2  T
   7    -28.1926856 -0.132854E-07  0.240E-04    2.29     101.0  T
     SCC iter.                  ...        0 min,  3.577 sec
     gradient                   ...        0 min,  0.394 sec
 * total energy  :   -27.8717383 Eh     change       -0.1194085E-03 Eh
   gradient norm :     0.0067059 Eh/α   predicted    -0.7468640E-04 ( -37.45%)
   displ. norm   :     0.1952795 α      lambda       -0.2471736E-03
   maximum displ.:     0.1528883 α      in ANC's #1, #7, #6, ...

........................................................................
.............................. CYCLE   11 ..............................
........................................................................

 iter      E             dE          RMSdq      gap      omega  full diag
   1    -28.1922262 -0.281922E+02  0.813E-02    2.29       0.0  T
   2    -28.1922282 -0.206826E-05  0.453E-02    2.30       1.0  T
   3    -28.1922154  0.128528E-04  0.333E-02    2.29       1.0  T
   4    -28.1922302 -0.148253E-04  0.694E-03    2.30       3.5  T
   5    -28.1922302 -0.215747E-07  0.490E-03    2.30       5.0  T
   6    -28.1922305 -0.226807E-06  0.172E-03    2.30      14.1  T
   7    -28.1922305 -0.301528E-07  0.547E-04    2.30      44.3  T
   8    -28.1922305 -0.438618E-09  0.262E-04    2.30      92.6  T
     SCC iter.                  ...        0 min,  2.147 sec
     gradient                   ...        0 min,  0.231 sec
 * total energy  :   -27.8719189 Eh     change       -0.1806443E-03 Eh
   gradient norm :     0.0071324 Eh/α   predicted    -0.1283004E-03 ( -28.98%)
   displ. norm   :     0.2296389 α      lambda       -0.2139577E-03
   maximum displ.:     0.1924263 α      in ANC's #1, #7, #6, ...

........................................................................
.............................. CYCLE   12 ..............................
........................................................................

 iter      E             dE          RMSdq      gap      omega  full diag
   1    -28.1914020 -0.281914E+02  0.945E-02    2.30       0.0  T
   2    -28.1914050 -0.303698E-05  0.512E-02    2.30       1.0  T
   3    -28.1913988  0.618241E-05  0.241E-02    2.30       1.0  T
   4    -28.1914067 -0.782527E-05  0.801E-03    2.30       3.0  T
   5    -28.1914068 -0.164708E-06  0.417E-03    2.30       5.8  T
   6    -28.1914069 -0.846016E-07  0.260E-03    2.30       9.3  T
   7    -28.1914070 -0.811354E-07  0.699E-04    2.30      34.7  T
   8    -28.1914070 -0.102149E-08  0.301E-04    2.30      80.7  T
     SCC iter.                  ...        0 min,  2.940 sec
     gradient                   ...        0 min,  0.300 sec
 * total energy  :   -27.8720835 Eh     change       -0.1645752E-03 Eh
   gradient norm :     0.0091063 Eh/α   predicted    -0.1126157E-03 ( -31.57%)
   displ. norm   :     0.3657146 α      lambda       -0.3276856E-03
   maximum displ.:     0.2938194 α      in ANC's #1, #7, #6, ...

........................................................................
.............................. CYCLE   13 ..............................
........................................................................

 iter      E             dE          RMSdq      gap      omega  full diag
   1    -28.1893844 -0.281894E+02  0.159E-01    2.30       0.0  T
   2    -28.1893946 -0.101676E-04  0.869E-02    2.30       1.0  T
   3    -28.1893592  0.353520E-04  0.565E-02    2.31       1.0  T
   4    -28.1893990 -0.397339E-04  0.239E-02    2.30       1.0  T
   5    -28.1894045 -0.556578E-05  0.899E-03    2.30       2.7  T
   6    -28.1894050 -0.428595E-06  0.540E-03    2.30       4.5  T
   7    -28.1894052 -0.230964E-06  0.117E-03    2.30      20.7  T
   8    -28.1894052 -0.125354E-08  0.495E-04    2.30      49.0  T
   9    -28.1894052 -0.899725E-09  0.163E-04    2.30     149.0  T
     SCC iter.                  ...        0 min,  4.442 sec
     gradient                   ...        0 min,  0.285 sec
 * total energy  :   -27.8723049 Eh     change       -0.2213964E-03 Eh
   gradient norm :     0.0114602 Eh/α   predicted    -0.1857507E-03 ( -16.10%)
   displ. norm   :     0.2880933 α      lambda       -0.3355227E-03
   maximum displ.:     0.2410325 α      in ANC's #1, #7, #6, ...

........................................................................
.............................. CYCLE   14 ..............................
........................................................................

 iter      E             dE          RMSdq      gap      omega  full diag
   1    -28.1896790 -0.281897E+02  0.122E-01    2.31       0.0  T
   2    -28.1896802 -0.119999E-05  0.703E-02    2.31       1.0  T
   3    -28.1896417  0.384817E-04  0.612E-02    2.31       1.0  T
   4    -28.1896927 -0.510037E-04  0.153E-02    2.31       1.6  T
   5    -28.1896942 -0.149588E-05  0.761E-03    2.31       3.2  T
   6    -28.1896946 -0.418080E-06  0.382E-03    2.31       6.4  T
   7    -28.1896947 -0.789209E-07  0.105E-03    2.31      23.0  T
   8    -28.1896947 -0.775376E-09  0.257E-04    2.31      94.2  T
   9    -28.1896947 -0.109043E-09  0.115E-04    2.31     211.5  T
     SCC iter.                  ...        0 min,  4.114 sec
     gradient                   ...        0 min,  0.341 sec
 * total energy  :   -27.8725509 Eh     change       -0.2459823E-03 Eh
   gradient norm :     0.0099856 Eh/α   predicted    -0.1816883E-03 ( -26.14%)
   displ. norm   :     0.2538919 α      lambda       -0.3679081E-03
   maximum displ.:     0.1863263 α      in ANC's #1, #7, #6, ...

........................................................................
.............................. CYCLE   15 ..............................
........................................................................

 iter      E             dE          RMSdq      gap      omega  full diag
   1    -28.1919887 -0.281920E+02  0.117E-01    2.32       0.0  T
   2    -28.1919836  0.516307E-05  0.736E-02    2.31       1.0  T
   3    -28.1919717  0.118305E-04  0.629E-02    2.32       1.0  T
   4    -28.1920145 -0.427617E-04  0.145E-02    2.31       1.7  T
   5    -28.1920157 -0.116646E-05  0.695E-03    2.31       3.5  T
   6    -28.1920160 -0.311389E-06  0.400E-03    2.31       6.1  T
   7    -28.1920161 -0.961736E-07  0.100E-03    2.31      24.2  T
   8    -28.1920161 -0.630852E-09  0.452E-04    2.31      53.6  T
   9    -28.1920161 -0.218666E-09  0.113E-04    2.31     215.1  T
     SCC iter.                  ...        0 min,  4.056 sec
     gradient                   ...        0 min,  0.279 sec
 * total energy  :   -27.8727964 Eh     change       -0.2455089E-03 Eh
   gradient norm :     0.0059180 Eh/α   predicted    -0.1958123E-03 ( -20.24%)
   displ. norm   :     0.2418113 α      lambda       -0.1459469E-03
   maximum displ.:     0.1944183 α      in ANC's #1, #7, #6, ...

........................................................................
.............................. CYCLE   16 ..............................
........................................................................

 iter      E             dE          RMSdq      gap      omega  full diag
   1    -28.1912965 -0.281913E+02  0.108E-01    2.31       0.0  T
   2    -28.1913017 -0.522567E-05  0.609E-02    2.31       1.0  T
   3    -28.1912850  0.166706E-04  0.487E-02    2.31       1.0  T
   4    -28.1913086 -0.235496E-04  0.182E-02    2.31       1.3  T
   5    -28.1913122 -0.357245E-05  0.562E-03    2.31       4.3  T
   6    -28.1913123 -0.159922E-06  0.354E-03    2.31       6.9  T
   7    -28.1913124 -0.874318E-07  0.784E-04    2.31      30.9  T
   8    -28.1913124 -0.424439E-09  0.340E-04    2.31      71.3  T
     SCC iter.                  ...        0 min,  2.976 sec
     gradient                   ...        0 min,  0.257 sec
 * total energy  :   -27.8728801 Eh     change       -0.8374471E-04 Eh
   gradient norm :     0.0053825 Eh/α   predicted    -0.7724141E-04 (  -7.77%)
   displ. norm   :     0.0540518 α      lambda       -0.9928248E-04
   maximum displ.:     0.0335262 α      in ANC's #4, #1, #9, ...

........................................................................
.............................. CYCLE   17 ..............................
........................................................................

 iter      E             dE          RMSdq      gap      omega  full diag
   1    -28.1948240 -0.281948E+02  0.538E-02    2.32       0.0  T
   2    -28.1948283 -0.429858E-05  0.300E-02    2.32       1.0  T
   3    -28.1948284 -0.129899E-06  0.149E-02    2.32       1.6  T
   4    -28.1948281  0.297921E-06  0.736E-03    2.32       3.3  T
   5    -28.1948288 -0.716886E-06  0.201E-03    2.32      12.0  T
   6    -28.1948288 -0.710927E-08  0.129E-03    2.32      18.8  T
   7    -28.1948288 -0.120679E-07  0.625E-04    2.32      38.8  T
   8    -28.1948288 -0.316179E-08  0.286E-04    2.32      84.9  T
     SCC iter.                  ...        0 min,  2.545 sec
     gradient                   ...        0 min,  0.251 sec
 * total energy  :   -27.8728844 Eh     change       -0.4262299E-05 Eh
   gradient norm :     0.0054965 Eh/α   predicted    -0.4978509E-04 (1068.03%)
   displ. norm   :     0.0776056 α      lambda       -0.7508146E-04
   maximum displ.:     0.0583821 α      in ANC's #1, #7, #6, ...

........................................................................
.............................. CYCLE   18 ..............................
........................................................................

 iter      E             dE          RMSdq      gap      omega  full diag
   1    -28.1930952 -0.281931E+02  0.490E-02    2.32       0.0  T
   2    -28.1930978 -0.261429E-05  0.261E-02    2.31       1.0  T
   3    -28.1930966  0.122564E-05  0.170E-02    2.31       1.4  T
   4    -28.1930974 -0.777995E-06  0.120E-02    2.31       2.0  T
   5    -28.1930992 -0.183709E-05  0.158E-03    2.31      15.4  T
   6    -28.1930992 -0.954465E-08  0.935E-04    2.31      25.9  T
   7    -28.1930992 -0.754551E-08  0.253E-04    2.31      95.7  T
     SCC iter.                  ...        0 min,  1.353 sec
     gradient                   ...        0 min,  0.101 sec
 * total energy  :   -27.8729258 Eh     change       -0.4137775E-04 Eh
   gradient norm :     0.0019648 Eh/α   predicted    -0.3776710E-04 (  -8.73%)
   displ. norm   :     0.0442021 α      lambda       -0.1046861E-04
   maximum displ.:     0.0324144 α      in ANC's #1, #7, #4, ...

........................................................................
.............................. CYCLE   19 ..............................
........................................................................

 iter      E             dE          RMSdq      gap      omega  full diag
   1    -28.1925097 -0.281925E+02  0.186E-02    2.31       0.0  T
   2    -28.1925099 -0.132067E-06  0.108E-02    2.32       2.3  T
   3    -28.1925091  0.765584E-06  0.745E-03    2.32       3.3  T
   4    -28.1925100 -0.876756E-06  0.211E-03    2.32      11.5  T
   5    -28.1925100 -0.353399E-07  0.912E-04    2.32      26.6  T
   6    -28.1925100 -0.628452E-08  0.433E-04    2.32      56.0  T
     SCC iter.                  ...        0 min,  1.133 sec
     gradient                   ...        0 min,  0.211 sec
 * total energy  :   -27.8729347 Eh     change       -0.8896753E-05 Eh
   gradient norm :     0.0015508 Eh/α   predicted    -0.5239399E-05 ( -41.11%)
   displ. norm   :     0.0322106 α      lambda       -0.7788803E-05
   maximum displ.:     0.0157033 α      in ANC's #7, #1, #2, ...

........................................................................
.............................. CYCLE   20 ..............................
........................................................................

 iter      E             dE          RMSdq      gap      omega  full diag
   1    -28.1931848 -0.281932E+02  0.164E-02    2.32       0.0  T
   2    -28.1931848 -0.957951E-08  0.960E-03    2.32       2.5  T
   3    -28.1931839  0.880922E-06  0.848E-03    2.32       2.9  T
   4    -28.1931850 -0.106114E-05  0.139E-03    2.32      17.5  T
   5    -28.1931850 -0.651745E-08  0.546E-04    2.32      44.4  T
   6    -28.1931850  0.135472E-09  0.272E-04    2.32      89.1  T
     SCC iter.                  ...        0 min,  0.940 sec
     gradient                   ...        0 min,  0.207 sec
 * total energy  :   -27.8729410 Eh     change       -0.6291284E-05 Eh
   gradient norm :     0.0009684 Eh/α   predicted    -0.3895620E-05 ( -38.08%)
   displ. norm   :     0.0377451 α      lambda       -0.4117514E-05
   maximum displ.:     0.0222192 α      in ANC's #1, #7, #2, ...
 * RMSD in coord.:     0.7674359 α      energy gain  -0.8964879E-01 Eh

generating ANC from exact Hessian ...
Using Lindh-Hessian (1995)
 Shifting diagonal of input Hessian by    6.5912014912782486E-003
 Lowest  eigenvalues of input Hessian
    0.000000    0.000000    0.000000    0.000000    0.000000    0.000000
    0.010000    0.014548    0.017426    0.019173    0.022533    0.027097
    0.029542    0.036609    0.040311    0.062198    0.073348    0.076682
 Highest eigenvalues
    1.421541    1.497979    1.852881    2.081986    2.262728    2.502052


........................................................................
.............................. CYCLE   21 ..............................
........................................................................

 iter      E             dE          RMSdq      gap      omega  full diag
   1    -28.1931810 -0.281932E+02  0.151E-02    2.32       0.0  T
   2    -28.1931811 -0.576045E-07  0.825E-03    2.32       2.9  T
   3    -28.1931808  0.289460E-06  0.495E-03    2.32       4.9  T
   4    -28.1931811 -0.332384E-06  0.156E-03    2.32      15.5  T
   5    -28.1931811 -0.484643E-08  0.776E-04    2.32      31.3  T
   6    -28.1931811 -0.455331E-08  0.361E-04    2.32      67.3  T
     SCC iter.                  ...        0 min,  0.965 sec
     gradient                   ...        0 min,  0.224 sec
 * total energy  :   -27.8729451 Eh     change       -0.4092629E-05 Eh
   gradient norm :     0.0008592 Eh/α   predicted     0.0000000E+00 (-100.00%)
   displ. norm   :     0.0172406 α      lambda       -0.3240049E-05
   maximum displ.:     0.0111083 α      in ANC's #2, #1, #4, ...

   *** GEOMETRY OPTIMIZATION CONVERGED AFTER 21 ITERATIONS ***

------------------------------------------------------------------------
 total energy gain   :        -0.0896529 Eh      -56.2580 kcal/mol
 total RMSD          :         0.7674359 a0        0.4061 Å
 total power (kW/mol):       -11.2087431 (step)   -2.8492 (real)
------------------------------------------------------------------------

 ANCopt (total)                0 d,  0 h,  1 min, 22.614 sec
 optimizer setup                ...        0 min,  0.000 sec (  0.000%)
 model hessian                  ...        0 min,  0.004 sec (  0.005%)
 ANC generation                 ...        0 min,  0.001 sec (  0.001%)
 coordinate transformation      ...        0 min,  0.000 sec (  0.000%)
 single point calculation       ...        1 min, 21.751 sec ( 98.955%)
 optimization log               ...        0 min,  0.002 sec (  0.002%)
 hessian update                 ...        0 min,  0.838 sec (  1.014%)
 rational function              ...        0 min,  0.013 sec (  0.016%)

================
 final structure:
================
17
 xtb: 6.7.1 (edcfbbe)
O           -0.21148556072479       -1.69120186991824       -1.19311632860175
S           -0.07878143148537       -1.21837536032068        0.18929746658315
N           -1.32439127492262       -0.11553681628101        0.45033488785410
C           -2.69346801631202        1.52656795331564       -0.42136182362450
N           -1.36143207174255        0.96951133510051       -0.26253600848090
C           -0.32589188299269        1.58090954415701       -0.79843156467101
C            1.00185244719811        1.17623811428556       -0.50326756372272
C            1.28112031215323       -0.00490661255874        0.07182148766983
C            2.60853051250248       -0.45923729315091        0.55317091566267
H           -2.65213932696362        2.61069405775356       -0.50339970693234
H           -3.28455664220670        1.23098857653013        0.44376350506380
H           -3.15620080286685        1.10804527042492       -1.31678974336329
H           -0.51594225819107        2.46768019815408       -1.37834346681287
H            1.78879695137869        1.88381725459274       -0.73405716852037
H            2.92173327221396       -1.34367517901175       -0.00180282224824
H            3.36155142335637        0.31792438588894        0.43669875818109
H            2.54558951960545       -0.73848040896139        1.60512153596345

 Bond Distances (Angstroems)
 ---------------------------
O1-S2=1.4671         S2-O1=1.4671         S2-N3=1.6840         S2-C8=1.8264         N3-S2=1.6840         N3-N5=1.2988         
C4-N5=1.4525         C4-H10=1.0880        C4-H11=1.0887        C4-H12=1.0914        N5-N3=1.2988         N5-C4=1.4525         
N5-C6=1.3166         C6-N5=1.3166         C6-C7=1.4191         C6-H13=1.0765        C7-C6=1.4191         C7-C8=1.3431         
C7-H14=1.0832        C8-S2=1.8264         C8-C7=1.3431         C8-C9=1.4833         C9-C8=1.4833         C9-H15=1.0901        
C9-H16=1.0884        C9-H17=1.0902        H10-C4=1.0880        H11-C4=1.0887        H12-C4=1.0914        H13-C6=1.0765        
H14-C7=1.0832        H15-C9=1.0901        H16-C9=1.0884        H17-C9=1.0902        
 C  H  Rav=1.0870 sigma=0.0046  Rmin=1.0765  Rmax=1.0914     8
 C  C  Rav=1.4151 sigma=0.0573  Rmin=1.3431  Rmax=1.4833     3
 N  C  Rav=1.3845 sigma=0.0680  Rmin=1.3166  Rmax=1.4525     2
 N  N  Rav=1.2988 sigma=0.0000  Rmin=1.2988  Rmax=1.2988     1
 S  C  Rav=1.8264 sigma=0.0000  Rmin=1.8264  Rmax=1.8264     1
 S  N  Rav=1.6840 sigma=0.0000  Rmin=1.6840  Rmax=1.6840     1
 S  O  Rav=1.4671 sigma=0.0000  Rmin=1.4671  Rmax=1.4671     1

 selected bond angles (degree)
 --------------------
N3-S2-O1=106.87                C8-S2-O1=102.76                C8-S2-N3= 97.22                N5-N3-S2=118.89                
H10-C4-N5=110.83               H11-C4-N5=107.87               H11-C4-H10=110.55              H12-C4-N5=109.36               
H12-C4-H10=109.66              H12-C4-H11=108.52              C4-N5-N3=113.99                C6-N5-N3=126.08                
C6-N5-C4=119.91                C7-C6-N5=121.25                H13-C6-N5=117.58               H13-C6-C7=120.81               
C8-C7-C6=122.30                H14-C7-C6=116.69               H14-C7-C8=120.98               C7-C8-S2=117.20                
C9-C8-S2=116.23                C9-C8-C7=126.47                H15-C9-C8=109.90               H16-C9-C8=111.45               
H16-C9-H15=109.03              H17-C9-C8=109.87               H17-C9-H15=107.46              H17-C9-H16=109.03              

 selected dihedral angles (degree)
 ---------------------------------
N5-N3-S2-O1=297.80            N5-N3-S2-C8= 43.52            C4-N5-N3-S2=153.53            C6-N5-N3-S2=332.09            
N3-N5-C4-H10=148.51           N3-N5-C4-H11= 27.36           N3-N5-C4-H12=269.52           C6-N5-C4-H10=329.86           
C6-N5-C4-H11=208.71           C6-N5-C4-H12= 90.86           C7-C6-N5-N3=352.29            C7-C6-N5-C4=170.77            
H13-C6-N5-N3=179.12           H13-C6-N5-C4=357.60           C8-C7-C6-N5= 15.46            C8-C7-C6-H13=188.41           
H14-C7-C6-N5=197.48           H14-C7-C6-H13= 10.43          C7-C8-S2-O1= 73.95            C7-C8-S2-N3=324.77            
C9-C8-S2-O1=257.43            C9-C8-S2-N3=148.24            S2-C8-C7-C6= 10.97            S2-C8-C7-H14=188.87           
C9-C8-C7-C6=187.09            C9-C8-C7-H14=  4.99           H15-C9-C8-S2= 58.33           H15-C9-C8-C7=242.18           
H16-C9-C8-S2=179.32           H16-C9-C8-C7=  3.16           H17-C9-C8-S2=300.29           H17-C9-C8-C7=124.13           
           -------------------------------------------------
          |                Final Singlepoint                |
           -------------------------------------------------

          ...................................................
          :                      SETUP                      :
          :.................................................:
          :  # basis functions                  50          :
          :  # atomic orbitals                  49          :
          :  # shells                           27          :
          :  # electrons                        50          :
          :  max. iterations                   250          :
          :  Hamiltonian                  GFN2-xTB          :
          :  restarted?                      false          :
          :  GBSA solvation                  false          :
          :  PC potential                    false          :
          :  electronic temp.          300.0000000     K    :
          :  accuracy                    1.0000000          :
          :  -> integral cutoff          0.2500000E+02      :
          :  -> integral neglect         0.1000000E-07      :
          :  -> SCF convergence          0.1000000E-05 Eh   :
          :  -> wf. convergence          0.1000000E-03 e    :
          :  Broyden damping             0.4000000          :
          :  net charge                          0          :
          :  unpaired electrons                  0          :
          ...................................................

 iter      E             dE          RMSdq      gap      omega  full diag
   1    -28.1931811 -0.281932E+02  0.143E-04    2.32       0.0  T
   2    -28.1931811 -0.144595E-11  0.985E-05    2.32     246.2  T
   3    -28.1931811  0.776375E-10  0.922E-05    2.32     262.9  T

   *** convergence criteria satisfied after 3 iterations ***

         #    Occupation            Energy/Eh            Energy/eV
      -------------------------------------------------------------
         1        2.0000           -0.7347596             -19.9938
       ...           ...                  ...                  ...
        19        2.0000           -0.4657647             -12.6741
        20        2.0000           -0.4582837             -12.4705
        21        2.0000           -0.4354134             -11.8482
        22        2.0000           -0.4173905             -11.3578
        23        2.0000           -0.3770700             -10.2606
        24        2.0000           -0.3682095             -10.0195
        25        2.0000           -0.3611586              -9.8276 (HOMO)
        26                         -0.2760247              -7.5110 (LUMO)
        27                         -0.1843897              -5.0175
        28                         -0.1775816              -4.8322
        29                         -0.1181268              -3.2144
        30                         -0.0391618              -1.0656
       ...                                ...                  ...
        49                          0.9466381              25.7593
      -------------------------------------------------------------
                  HL-Gap            0.0851339 Eh            2.3166 eV
             Fermi-level           -0.3185917 Eh           -8.6693 eV

 SCC (total)                   0 d,  0 h,  0 min,  0.820 sec
 SCC setup                      ...        0 min,  0.010 sec (  1.192%)
 Dispersion                     ...        0 min,  0.035 sec (  4.224%)
 classical contributions        ...        0 min,  0.045 sec (  5.434%)
 integral evaluation            ...        0 min,  0.073 sec (  8.899%)
 iterations                     ...        0 min,  0.540 sec ( 65.920%)
 molecular gradient             ...        0 min,  0.117 sec ( 14.311%)
 printout                       ...        0 min,  0.000 sec (  0.016%)

         :::::::::::::::::::::::::::::::::::::::::::::::::::::
         ::                     SUMMARY                     ::
         :::::::::::::::::::::::::::::::::::::::::::::::::::::
         :: total energy             -27.872945069297 Eh    ::
         :: gradient norm              0.000863199076 Eh/a0 ::
         :: HOMO-LUMO gap              2.316610058605 eV    ::
         ::.................................................::
         :: SCC energy               -28.193158770254 Eh    ::
         :: -> isotropic ES            0.055409205789 Eh    ::
         :: -> anisotropic ES          0.000023446317 Eh    ::
         :: -> anisotropic XC          0.015808152720 Eh    ::
         :: -> dispersion             -0.015165580813 Eh    ::
         :: repulsion energy           0.320213700957 Eh    ::
         :: add. restraining           0.000000000000 Eh    ::
         :: total charge               0.000000000000 e     ::
         :::::::::::::::::::::::::::::::::::::::::::::::::::::

           -------------------------------------------------
          |                Property Printout                |
           -------------------------------------------------

    * Orbital Energies and Occupations

         #    Occupation            Energy/Eh            Energy/eV
      -------------------------------------------------------------
         1        2.0000           -0.7347596             -19.9938
       ...           ...                  ...                  ...
        13        2.0000           -0.5088281             -13.8459
        14        2.0000           -0.5064200             -13.7804
        15        2.0000           -0.5030299             -13.6881
        16        2.0000           -0.4909107             -13.3584
        17        2.0000           -0.4865201             -13.2389
        18        2.0000           -0.4724380             -12.8557
        19        2.0000           -0.4657647             -12.6741
        20        2.0000           -0.4582837             -12.4705
        21        2.0000           -0.4354134             -11.8482
        22        2.0000           -0.4173905             -11.3578
        23        2.0000           -0.3770700             -10.2606
        24        2.0000           -0.3682095             -10.0195
        25        2.0000           -0.3611586              -9.8276 (HOMO)
        26                         -0.2760247              -7.5110 (LUMO)
        27                         -0.1843897              -5.0175
        28                         -0.1775816              -4.8322
        29                         -0.1181268              -3.2144
        30                         -0.0391618              -1.0656
        31                          0.0004044               0.0110
        32                          0.0544909               1.4828
        33                          0.0828959               2.2557
        34                          0.1174013               3.1947
        35                          0.1322254               3.5980
        36                          0.1453844               3.9561
       ...                                ...                  ...
        49                          0.9466381              25.7593
      -------------------------------------------------------------
                  HL-Gap            0.0851339 Eh            2.3166 eV
             Fermi-level           -0.3185917 Eh           -8.6693 eV

     #   Z          covCN         q      C6AA      α(0)
     1   8 O        0.860    -0.519    24.199     6.596
     2  16 S        2.915     0.475   123.190    18.681
     3   7 N        1.932    -0.340    29.675     8.077
     4   6 C        3.720    -0.075    22.063     6.709
     5   7 N        2.904     0.175    18.308     6.355
     6   6 C        2.865    -0.030    28.738     8.787
     7   6 C        2.949    -0.040    28.998     8.832
     8   6 C        2.940    -0.032    28.789     8.800
     9   6 C        3.774    -0.112    22.667     6.784
    10   1 H        0.925     0.068     2.107     2.270
    11   1 H        0.925     0.094     1.840     2.121
    12   1 H        0.924     0.083     1.945     2.181
    13   1 H        0.926     0.043     2.405     2.425
    14   1 H        0.925     0.041     2.439     2.442
    15   1 H        0.925     0.063     2.163     2.300
    16   1 H        0.925     0.049     2.333     2.388
    17   1 H        0.925     0.056     2.248     2.345

 Mol. C6AA /au·bohr⁶  :       3963.844193
 Mol. C8AA /au·bohr⁸  :     104438.047765
 Mol. α(0) /au        :         98.092905


Wiberg/Mayer (AO) data.
largest (>0.10) Wiberg bond orders for each atom

 ---------------------------------------------------------------------------
     #   Z sym  total        # sym  WBO       # sym  WBO       # sym  WBO
 ---------------------------------------------------------------------------
     1   8 O    2.012 --     2 S    1.784
     2  16 S    3.963 --     1 O    1.784     3 N    1.126     8 C    0.932
     3   7 N    2.956 --     5 N    1.279     2 S    1.126     6 C    0.255
                             8 C    0.130
     4   6 C    3.960 --    10 H    0.979     5 N    0.977    11 H    0.974
                            12 H    0.966
     5   7 N    3.777 --     6 C    1.401     3 N    1.279     4 C    0.977
     6   6 C    3.956 --     5 N    1.401     7 C    1.222    13 H    0.964
                             3 N    0.255
     7   6 C    3.990 --     8 C    1.695     6 C    1.222    14 H    0.953
     8   6 C    3.979 --     7 C    1.695     9 C    1.044     2 S    0.932
                             3 N    0.130
     9   6 C    3.995 --     8 C    1.044    16 H    0.980    17 H    0.965
                            15 H    0.963
    10   1 H    0.995 --     4 C    0.979
    11   1 H    0.991 --     4 C    0.974
    12   1 H    0.993 --     4 C    0.966
    13   1 H    0.998 --     6 C    0.964
    14   1 H    0.998 --     7 C    0.953
    15   1 H    0.995 --     9 C    0.963
    16   1 H    0.998 --     9 C    0.980
    17   1 H    0.996 --     9 C    0.965
 ---------------------------------------------------------------------------

Topologies differ in total number of bonds
Writing topology from bond orders to xtbtopo.mol

molecular dipole:
                 x           y           z       tot (Debye)
 q only:       -0.163       1.528       0.832
   full:        0.057       1.918       0.469       5.021
molecular quadrupole (traceless):
                xx          xy          yy          xz          yz          zz
 q only:        8.118      -7.351      -2.087       2.503      -7.858      -6.031
  q+dip:        7.622      -7.333      -1.420       3.539      -8.672      -6.201
   full:        7.845      -7.525      -1.802       3.584      -7.806      -6.043

           -------------------------------------------------
          |                Geometry Summary                 |
           -------------------------------------------------

      molecular mass/u    :      144.1948042
   center of mass at/Å    :       -0.1388859      -0.0047928      -0.1736391
  moments of inertia/u·Å² :        0.2034825E+03   0.4002857E+03   0.5195905E+03
rotational constants/cm⁻¹ :        0.8284561E-01   0.4211400E-01   0.3244408E-01

 * 16 selected distances

     #   Z          #   Z                                           value/Å
     1   8 O        2  16 S                                       1.4670527
     2  16 S        3   7 N                                       1.6840243 (max)
     3   7 N        5   7 N                                       1.2988020
     4   6 C        5   7 N                                       1.4525350
     5   7 N        6   6 C                                       1.3165620
     6   6 C        7   6 C                                       1.4190793
     7   6 C        8   6 C                                       1.3430641
     8   6 C        9   6 C                                       1.4832842
     4   6 C       10   1 H                                       1.0880110
     4   6 C       11   1 H                                       1.0886666
     4   6 C       12   1 H                                       1.0913635
     6   6 C       13   1 H                                       1.0764661 (min)
     7   6 C       14   1 H                                       1.0831500
     9   6 C       15   1 H                                       1.0901020
     9   6 C       16   1 H                                       1.0883872
     9   6 C       17   1 H                                       1.0902012

 * 6 distinct bonds (by element types)

   Z      Z             #   av. dist./Å        max./Å        min./Å
   1 H    6 C           8     1.0870435     1.0913635     1.0764661
   6 C    6 C           3     1.4151425     1.4832842     1.3430641
   6 C    7 N           2     1.3845485     1.4525350     1.3165620
   7 N    7 N           1     1.2988020     1.2988020     1.2988020
   7 N   16 S           1     1.6840243     1.6840243     1.6840243
   8 O   16 S           1     1.4670527     1.4670527     1.4670527


optimized geometry written to: xtbopt.xyz


           -------------------------------------------------
          | TOTAL ENERGY              -27.872945069297 Eh   |
          | GRADIENT NORM               0.000863199076 Eh/α |
          | HOMO-LUMO GAP               2.316610058605 eV   |
           -------------------------------------------------

------------------------------------------------------------------------
 * finished run on 2026/08/20 at 02:38:56.772     
------------------------------------------------------------------------
 total:
 * wall-time:     0 d,  0 h,  1 min, 27.252 sec
 *  cpu-time:     0 d,  0 h,  2 min,  8.578 sec
 * ratio c/w:     1.474 speedup
 SCF:
 * wall-time:     0 d,  0 h,  0 min,  3.619 sec
 *  cpu-time:     0 d,  0 h,  0 min,  9.623 sec
 * ratio c/w:     2.659 speedup
 ANC optimizer:
 * wall-time:     0 d,  0 h,  1 min, 23.462 sec
 *  cpu-time:     0 d,  0 h,  1 min, 58.342 sec
 * ratio c/w:     1.418 speedup

