      -----------------------------------------------------------      
     |                   =====================                   |     
     |                           x T B                           |     
     |                   =====================                   |     
     |                         S. Grimme                         |     
     |          Mulliken Center for Theoretical Chemistry        |     
     |                    University of Bonn                     |     
      -----------------------------------------------------------      

   * xtb version 6.7.1 (edcfbbe) compiled by 'conda@3ef47c1a292c' on 2024-11-25

   xtb is free software: you can redistribute it and/or modify it under
   the terms of the GNU Lesser General Public License as published by
   the Free Software Foundation, either version 3 of the License, or
   (at your option) any later version.
   
   xtb is distributed in the hope that it will be useful,
   but WITHOUT ANY WARRANTY; without even the implied warranty of
   MERCHANTABILITY or FITNESS FOR A PARTICULAR PURPOSE.  See the
   GNU Lesser General Public License for more details.
   
   Cite this work as:
   * C. Bannwarth, E. Caldeweyher, S. Ehlert, A. Hansen, P. Pracht,
     J. Seibert, S. Spicher, S. Grimme, WIREs Comput. Mol. Sci., 2020, 11,
     e01493. DOI: 10.1002/wcms.1493
   
   for GFN2-xTB:
   * C. Bannwarth, S. Ehlert and S. Grimme., J. Chem. Theory Comput., 2019,
     15, 1652-1671. DOI: 10.1021/acs.jctc.8b01176
   for GFN1-xTB:
   * S. Grimme, C. Bannwarth, P. Shushkov, J. Chem. Theory Comput., 2017,
     13, 1989-2009. DOI: 10.1021/acs.jctc.7b00118
   for GFN0-xTB:
   * P. Pracht, E. Caldeweyher, S. Ehlert, S. Grimme, ChemRxiv, 2019, preprint.
     DOI: 10.26434/chemrxiv.8326202.v1
   for GFN-FF:
   * S. Spicher and S. Grimme, Angew. Chem. Int. Ed., 2020, 59, 15665-15673.
     DOI: 10.1002/anie.202004239
   
   for ALPB and GBSA implicit solvation:
   * S. Ehlert, M. Stahn, S. Spicher, S. Grimme, J. Chem. Theory Comput.,
     2021, 17, 4250-4261. DOI: 10.1021/acs.jctc.1c00471
   
   for ddCOSMO and CPCM-X implicit solvation:
   * M. Stahn, S. Ehlert, S. Grimme, J. Phys. Chem. A,
     2023, XX, XXXX-XXXX. DOI: 10.1021/acs.jpca.3c04382
   
   for DFT-D4:
   * E. Caldeweyher, C. Bannwarth and S. Grimme, J. Chem. Phys., 2017,
     147, 034112. DOI: 10.1063/1.4993215
   * E. Caldeweyher, S. Ehlert, A. Hansen, H. Neugebauer, S. Spicher,
     C. Bannwarth and S. Grimme, J. Chem. Phys., 2019, 150, 154122.
     DOI: 10.1063/1.5090222
   * E. Caldeweyher, J.-M. Mewes, S. Ehlert and S. Grimme, Phys. Chem. Chem. Phys.
     2020, 22, 8499-8512. DOI: 10.1039/D0CP00502A
   
   for sTDA-xTB:
   * S. Grimme and C. Bannwarth, J. Chem. Phys., 2016, 145, 054103.
     DOI: 10.1063/1.4959605
   
   in the mass-spec context:
   * V. Asgeirsson, C. Bauer and S. Grimme, Chem. Sci., 2017, 8, 4879.
     DOI: 10.1039/c7sc00601b
   * J. Koopman and S. Grimme, ACS Omega 2019, 4, 12, 15120-15133.
     DOI: 10.1021/acsomega.9b02011
   
   for metadynamics refer to:
   * S. Grimme, J. Chem. Theory Comput., 2019, 155, 2847-2862
     DOI: 10.1021/acs.jctc.9b00143
   
   for SPH calculations refer to:
   * S. Spicher and S. Grimme, J. Chem. Theory Comput., 2021, 17, 1701-1714
     DOI: 10.1021/acs.jctc.0c01306
   
   for ONIOM refer to:
   * C. Plett, A. Katbashev, S. Ehlert, S. Grimme, M. Bursch,
     Phys. Chem. Chem. Phys., 2023, 25, 17860-17868. DOI: 10.1039/D3CP02178E
   
   for DIPRO refer to:
   * J. Kohn, N. Gildemeister, S. Grimme, D. Fazzi, A. Hansen,
     J. Chem. Phys., 2023, just accepted.
   
   for PTB refer to:
   * S. Grimme, M. Mueller, A. Hansen, J. Chem. Phys., 2023, 158, 124111.
     DOI: 10.1063/5.0137838
   
   with help from (in alphabetical order)
   P. Atkinson, C. Bannwarth, F. Bohle, G. Brandenburg, E. Caldeweyher
   M. Checinski, S. Dohm, S. Ehlert, S. Ehrlich, I. Gerasimov, C. Hölzer
   A. Katbashev, J. Kohn, J. Koopman, C. Lavigne, S. Lehtola, F. März, M. Müller,
   F. Musil, H. Neugebauer, J. Pisarek, C. Plett, P. Pracht, F. Pultar,
   J. Seibert, P. Shushkov, S. Spicher, M. Stahn, M. Steiner, T. Strunk,
   J. Stückrath, T. Rose, and J. Unsleber
   
 * started run on 2026/08/20 at 02:55:10.279     
   ID    Z sym.   atoms
    1    8 O      1
    2   16 S      2
    3    7 N      3, 5
    4    6 C      4, 6-9
    5    1 H      10-17
constraining bond 3 8 to    1.9500000 Å, actual value:    2.6351856 Å
constraining bond 2 3 to    2.1000000 Å, actual value:    1.6840243 Å
constraining bond 2 8 to    2.1000000 Å, actual value:    1.8263736 Å

           -------------------------------------------------
          |                Calculation Setup                |
           -------------------------------------------------

          program call               : /h/399/yunhengzou/micromamba/envs/el-agente/bin/xtb subB_manual_opt.xyz --opt --gfn 2 -P 4 --chrg 0 --uhf 0 --input detailed_input.inp
          coordinate file            : subB_manual_opt.xyz
          omp threads                :                     4


           -------------------------------------------------
          |                 G F N 2 - x T B                 |
           -------------------------------------------------

        Reference                      10.1021/acs.jctc.8b01176
      * Hamiltonian:
        H0-scaling (s, p, d)           1.850000    2.230000    2.230000
        zeta-weighting                 0.500000
      * Dispersion:
        s8                             2.700000
        a1                             0.520000
        a2                             5.000000
        s9                             5.000000
      * Repulsion:
        kExp                           1.500000    1.000000
        rExp                           1.000000
      * Coulomb:
        alpha                          2.000000
        third order                    shell-resolved
        anisotropic                    true
        a3                             3.000000
        a5                             4.000000
        cn-shift                       1.200000
        cn-exp                         4.000000
        max-rad                        5.000000


          ...................................................
          :                      SETUP                      :
          :.................................................:
          :  # basis functions                  50          :
          :  # atomic orbitals                  49          :
          :  # shells                           27          :
          :  # electrons                        50          :
          :  max. iterations                   250          :
          :  Hamiltonian                  GFN2-xTB          :
          :  restarted?                      false          :
          :  GBSA solvation                  false          :
          :  PC potential                    false          :
          :  electronic temp.          300.0000000     K    :
          :  accuracy                    1.0000000          :
          :  -> integral cutoff          0.2500000E+02      :
          :  -> integral neglect         0.1000000E-07      :
          :  -> SCF convergence          0.1000000E-05 Eh   :
          :  -> wf. convergence          0.1000000E-03 e    :
          :  Broyden damping             0.4000000          :
          :  net charge                          0          :
          :  unpaired electrons                  0          :
          ...................................................

 iter      E             dE          RMSdq      gap      omega  full diag
   1    -28.1038801 -0.281039E+02  0.460E+00    2.77       0.0  T
   2    -28.1800587 -0.761786E-01  0.310E+00    2.31       1.0  T
   3    -28.1738247  0.623401E-02  0.170E+00    2.31       1.0  T
   4    -28.1639794  0.984529E-02  0.153E+00    2.44       1.0  T
   5    -28.1927069 -0.287275E-01  0.318E-01    2.34       1.0  T
   6    -28.1928587 -0.151799E-03  0.162E-01    2.31       1.0  T
   7    -28.1931366 -0.277883E-03  0.737E-02    2.31       1.0  T
   8    -28.1931795 -0.428958E-04  0.274E-02    2.32       1.0  T
   9    -28.1931806 -0.107222E-05  0.165E-02    2.32       1.5  T
  10    -28.1931810 -0.454792E-06  0.462E-03    2.32       5.3  T
  11    -28.1931811 -0.126379E-06  0.206E-03    2.32      11.8  T
  12    -28.1931811 -0.133201E-08  0.631E-04    2.32      38.4  T
  13    -28.1931811 -0.180653E-08  0.167E-04    2.32     145.5  T

   *** convergence criteria satisfied after 13 iterations ***

         #    Occupation            Energy/Eh            Energy/eV
      -------------------------------------------------------------
         1        2.0000           -0.7347601             -19.9938
       ...           ...                  ...                  ...
        19        2.0000           -0.4657637             -12.6741
        20        2.0000           -0.4582826             -12.4705
        21        2.0000           -0.4354130             -11.8482
        22        2.0000           -0.4173901             -11.3578
        23        2.0000           -0.3770703             -10.2606
        24        2.0000           -0.3682089             -10.0195
        25        2.0000           -0.3611586              -9.8276 (HOMO)
        26                         -0.2760245              -7.5110 (LUMO)
        27                         -0.1843890              -5.0175
        28                         -0.1775813              -4.8322
        29                         -0.1181263              -3.2144
        30                         -0.0391616              -1.0656
       ...                                ...                  ...
        49                          0.9466388              25.7594
      -------------------------------------------------------------
                  HL-Gap            0.0851341 Eh            2.3166 eV
             Fermi-level           -0.3185915 Eh           -8.6693 eV

 SCC (total)                   0 d,  0 h,  0 min,  0.625 sec
 SCC setup                      ...        0 min,  0.000 sec (  0.019%)
 Dispersion                     ...        0 min,  0.000 sec (  0.018%)
 classical contributions        ...        0 min,  0.000 sec (  0.006%)
 integral evaluation            ...        0 min,  0.001 sec (  0.182%)
 iterations                     ...        0 min,  0.621 sec ( 99.486%)
 molecular gradient             ...        0 min,  0.002 sec (  0.268%)
 printout                       ...        0 min,  0.000 sec (  0.019%)

         :::::::::::::::::::::::::::::::::::::::::::::::::::::
         ::                     SUMMARY                     ::
         :::::::::::::::::::::::::::::::::::::::::::::::::::::
         :: total energy             -25.311111548590 Eh    ::
         :: gradient norm              3.167367402275 Eh/a0 ::
         :: HOMO-LUMO gap              2.316616339329 eV    ::
         ::.................................................::
         :: SCC energy               -28.193158770245 Eh    ::
         :: -> isotropic ES            0.055410411779 Eh    ::
         :: -> anisotropic ES          0.000023330406 Eh    ::
         :: -> anisotropic XC          0.015808259288 Eh    ::
         :: -> dispersion             -0.015165594970 Eh    ::
         :: repulsion energy           0.320213700957 Eh    ::
         :: add. restraining           2.561833520698 Eh    ::
         :: total charge               0.000000000000 e     ::
         :::::::::::::::::::::::::::::::::::::::::::::::::::::

      ----------------------------------------------------------- 
     |                   =====================                   |
     |                        A N C O P T                        |
     |                   =====================                   |
     |               Approximate Normal Coordinate               |
     |                Rational Function Optimizer                |
      ----------------------------------------------------------- 
      ----------------------------------------------------------- 
     |                   =====================                   |
     |                        A N C O P T                        |
     |                   =====================                   |
     |               Approximate Normal Coordinate               |
     |                Rational Function Optimizer                |
      ----------------------------------------------------------- 

          ...................................................
          :                      SETUP                      :
          :.................................................:
          :   optimization level            normal          :
          :   max. optcycles                   200          :
          :   ANC micro-cycles                  20          :
          :   degrees of freedom                45          :
          :.................................................:
          :   RF solver                   davidson          :
          :   write xtbopt.log                true          :
          :   linear?                        false          :
          :   energy convergence         0.5000000E-05 Eh   :
          :   grad. convergence          0.1000000E-02 Eh/α :
          :   maxmium RF displ.          1.0000000          :
          :   Hlow (freq-cutoff)         0.1000000E-01      :
          :   Hmax (freq-cutoff)         5.0000000          :
          :   S6 in model hess.         20.0000000          :
          ...................................................

generating ANC from exact Hessian ...
Using Lindh-Hessian (1995)
 Shifting diagonal of input Hessian by   0.66021501840264729     
 Lowest  eigenvalues of input Hessian
    0.010000    0.000000    0.000000    0.000000    0.000000    0.000000
    0.000000    0.666014    0.669376    0.673823    0.674917    0.678395
    0.693698    0.702627    0.713647    0.716420    0.726708    0.729596
 Highest eigenvalues
    2.499612    2.686612    2.891163    3.060102    6.422822    7.732408


........................................................................
.............................. CYCLE    1 ..............................
........................................................................

 iter      E             dE          RMSdq      gap      omega  full diag
   1    -28.1931811 -0.281932E+02  0.625E-05    2.32       0.0  T
   2    -28.1931811 -0.106049E-10  0.359E-05    2.32     676.4  T
   3    -28.1931811 -0.341061E-12  0.231E-05    2.32    1048.2  T
     SCC iter.                  ...        0 min,  0.084 sec
     gradient                   ...        0 min,  0.002 sec
 * total energy  :   -25.3111115 Eh     change       -0.1082299E-09 Eh
   gradient norm :     3.1671892 Eh/α   predicted     0.0000000E+00 (-100.00%)
   displ. norm   :     0.7025260 α      lambda       -0.2176300E+01
   maximum displ.:     0.3501487 α      in ANC's #43, #31, #38, ...

........................................................................
.............................. CYCLE    2 ..............................
........................................................................

 iter      E             dE          RMSdq      gap      omega  full diag
   1    -28.1447129 -0.281447E+02  0.156E+00    2.04       0.0  T
   2    -28.1517243 -0.701146E-02  0.112E+00    1.94       1.0  T
   3    -28.1532096 -0.148531E-02  0.537E-01    1.94       1.0  T
   4    -28.1526048  0.604888E-03  0.314E-01    1.99       1.0  T
   5    -28.1536571 -0.105237E-02  0.115E-01    1.95       1.0  T
   6    -28.1536437  0.134179E-04  0.675E-02    1.97       1.0  T
   7    -28.1537045 -0.608421E-04  0.147E-02    1.96       1.6  T
   8    -28.1537057 -0.118032E-05  0.729E-03    1.96       3.3  T
   9    -28.1537058 -0.673505E-07  0.167E-03    1.96      14.5  T
  10    -28.1537058 -0.139582E-07  0.872E-04    1.96      27.8  T
  11    -28.1537058 -0.593580E-09  0.256E-04    1.96      94.9  T
     SCC iter.                  ...        0 min,  0.245 sec
     gradient                   ...        0 min,  0.002 sec
 * total energy  :   -27.0533904 Eh     change       -0.1742279E+01 Eh
   gradient norm :     1.7811994 Eh/α   predicted    -0.1625198E+01 (  -6.72%)
   displ. norm   :     0.6394139 α      lambda       -0.1109713E+01
   maximum displ.:     0.3116797 α      in ANC's #31, #43, #38, ...

........................................................................
.............................. CYCLE    3 ..............................
........................................................................

 iter      E             dE          RMSdq      gap      omega  full diag
   1    -28.0534296 -0.280534E+02  0.280E+00    1.01       0.0  T
   2    -28.0403027  0.131268E-01  0.178E+00    1.06       1.0  T
   3    -28.0671943 -0.268916E-01  0.134E+00    1.01       1.0  T
   4    -28.0757211 -0.852674E-02  0.293E-01    1.01       1.0  T
   5    -28.0759394 -0.218357E-03  0.141E-01    0.99       1.0  T
   6    -28.0761156 -0.176195E-03  0.772E-02    1.00       1.0  T
   7    -28.0761309 -0.152236E-04  0.519E-02    1.00       1.0  T
   8    -28.0761573 -0.264801E-04  0.109E-02    1.00       2.2  T
   9    -28.0761581 -0.748869E-06  0.425E-03    1.00       5.7  T
  10    -28.0761581 -0.288270E-07  0.285E-03    1.00       8.5  T
  11    -28.0761581 -0.256945E-07  0.993E-04    1.00      24.4  T
  12    -28.0761581 -0.249966E-08  0.381E-04    1.00      63.7  T
     SCC iter.                  ...        0 min,  0.391 sec
     gradient                   ...        0 min,  0.061 sec
 * total energy  :   -27.6893629 Eh     change       -0.6359725E+00 Eh
   gradient norm :     0.5162913 Eh/α   predicted    -0.7817097E+00 (  22.92%)
   displ. norm   :     0.5846361 α      lambda       -0.1223016E+00
   maximum displ.:     0.5505831 α      in ANC's #1, #44, #31, ...

........................................................................
.............................. CYCLE    4 ..............................
........................................................................

 iter      E             dE          RMSdq      gap      omega  full diag
   1    -28.0529964 -0.280530E+02  0.123E+00    1.12       0.0  T
   2    -28.0585532 -0.555678E-02  0.751E-01    1.18       1.0  T
   3    -28.0587038 -0.150601E-03  0.402E-01    1.15       1.0  T
   4    -28.0593001 -0.596310E-03  0.335E-01    1.16       1.0  T
   5    -28.0598471 -0.546958E-03  0.977E-02    1.17       1.0  T
   6    -28.0599510 -0.103896E-03  0.440E-02    1.16       1.0  T
   7    -28.0599720 -0.210328E-04  0.163E-02    1.16       1.5  T
   8    -28.0599736 -0.162773E-05  0.661E-03    1.16       3.7  T
   9    -28.0599738 -0.143918E-06  0.316E-03    1.16       7.7  T
  10    -28.0599738 -0.357598E-07  0.108E-03    1.16      22.6  T
  11    -28.0599738 -0.417415E-08  0.327E-04    1.16      74.1  T
  12    -28.0599738 -0.394216E-09  0.191E-04    1.16     127.0  T
     SCC iter.                  ...        0 min,  0.567 sec
     gradient                   ...        0 min,  0.072 sec
 * total energy  :   -27.7424469 Eh     change       -0.5308397E-01 Eh
   gradient norm :     0.3501811 Eh/α   predicted    -0.8205211E-01 (  54.57%)
   displ. norm   :     0.6141969 α      lambda       -0.8376729E-01
   maximum displ.:     0.5317686 α      in ANC's #1, #44, #27, ...

........................................................................
.............................. CYCLE    5 ..............................
........................................................................

 iter      E             dE          RMSdq      gap      omega  full diag
   1    -28.0005536 -0.280006E+02  0.205E+00    1.42       0.0  T
   2    -28.0082187 -0.766509E-02  0.201E+00    1.03       1.0  T
   3    -28.0299076 -0.216889E-01  0.567E-01    1.18       1.0  T
   4    -28.0281813  0.172633E-02  0.444E-01    1.12       1.0  T
   5    -28.0298246 -0.164331E-02  0.165E-01    1.15       1.0  T
   6    -28.0300294 -0.204819E-03  0.645E-02    1.16       1.0  T
   7    -28.0300420 -0.125303E-04  0.325E-02    1.16       1.0  T
   8    -28.0300541 -0.121823E-04  0.840E-03    1.16       2.9  T
   9    -28.0300542 -0.933676E-07  0.543E-03    1.16       4.5  T
  10    -28.0300544 -0.174857E-06  0.197E-03    1.16      12.3  T
  11    -28.0300544 -0.219197E-07  0.854E-04    1.16      28.4  T
  12    -28.0300544 -0.240919E-08  0.128E-04    1.16     189.2  T
     SCC iter.                  ...        0 min,  0.581 sec
     gradient                   ...        0 min,  0.065 sec
 * total energy  :   -27.6791273 Eh     change        0.6331957E-01 Eh
   gradient norm :     0.9017953 Eh/α   predicted    -0.5768375E-01 (-191.10%)
   displ. norm   :     0.2648667 α      lambda       -0.1284679E+00
   maximum displ.:     0.2093774 α      in ANC's #1, #44, #31, ...

........................................................................
.............................. CYCLE    6 ..............................
........................................................................

 iter      E             dE          RMSdq      gap      omega  full diag
   1    -28.0452602 -0.280453E+02  0.106E+00    1.10       0.0  T
   2    -28.0437905  0.146973E-02  0.116E+00    1.28       1.0  T
   3    -28.0534723 -0.968183E-02  0.220E-01    1.20       1.0  T
   4    -28.0532888  0.183512E-03  0.144E-01    1.18       1.0  T
   5    -28.0534879 -0.199116E-03  0.607E-02    1.19       1.0  T
   6    -28.0535156 -0.276289E-04  0.300E-02    1.19       1.0  T
   7    -28.0535229 -0.732986E-05  0.137E-02    1.19       1.8  T
   8    -28.0535246 -0.172844E-05  0.392E-03    1.19       6.2  T
   9    -28.0535247 -0.459573E-07  0.169E-03    1.19      14.4  T
  10    -28.0535247 -0.166696E-07  0.483E-04    1.19      50.2  T
  11    -28.0535247 -0.617963E-09  0.218E-04    1.19     111.3  T
     SCC iter.                  ...        0 min,  0.535 sec
     gradient                   ...        0 min,  0.066 sec
 * total energy  :   -27.7596521 Eh     change       -0.8052476E-01 Eh
   gradient norm :     0.2024803 Eh/α   predicted    -0.6874027E-01 ( -14.63%)
   displ. norm   :     0.3723433 α      lambda       -0.2743888E-01
   maximum displ.:     0.3572373 α      in ANC's #1, #26, #8, ...

........................................................................
.............................. CYCLE    7 ..............................
........................................................................

 iter      E             dE          RMSdq      gap      omega  full diag
   1    -28.0589005 -0.280589E+02  0.703E-01    1.22       0.0  T
   2    -28.0593663 -0.465759E-03  0.642E-01    1.35       1.0  T
   3    -28.0615810 -0.221469E-02  0.218E-01    1.29       1.0  T
   4    -28.0614958  0.852018E-04  0.147E-01    1.29       1.0  T
   5    -28.0615781 -0.823505E-04  0.718E-02    1.30       1.0  T
   6    -28.0616414 -0.633037E-04  0.285E-02    1.29       1.0  T
   7    -28.0616471 -0.563836E-05  0.137E-02    1.29       1.8  T
   8    -28.0616493 -0.219822E-05  0.427E-03    1.29       5.7  T
   9    -28.0616493 -0.234245E-07  0.242E-03    1.29      10.0  T
  10    -28.0616493 -0.342795E-07  0.727E-04    1.29      33.3  T
  11    -28.0616493 -0.363427E-08  0.274E-04    1.29      88.5  T
     SCC iter.                  ...        0 min,  0.343 sec
     gradient                   ...        0 min,  0.079 sec
 * total energy  :   -27.7751307 Eh     change       -0.1547861E-01 Eh
   gradient norm :     0.1474055 Eh/α   predicted    -0.1562151E-01 (   0.92%)
   displ. norm   :     0.1364246 α      lambda       -0.7153558E-02
   maximum displ.:     0.0916090 α      in ANC's #1, #8, #26, ...

........................................................................
.............................. CYCLE    8 ..............................
........................................................................

 iter      E             dE          RMSdq      gap      omega  full diag
   1    -28.0636291 -0.280636E+02  0.197E-01    1.37       0.0  T
   2    -28.0636765 -0.474433E-04  0.174E-01    1.34       1.0  T
   3    -28.0638563 -0.179775E-03  0.672E-02    1.36       1.0  T
   4    -28.0638545  0.181579E-05  0.390E-02    1.35       1.0  T
   5    -28.0638582 -0.375619E-05  0.226E-02    1.35       1.1  T
   6    -28.0638658 -0.757817E-05  0.802E-03    1.35       3.0  T
   7    -28.0638661 -0.275438E-06  0.219E-03    1.35      11.1  T
   8    -28.0638661 -0.122729E-07  0.999E-04    1.35      24.3  T
   9    -28.0638661 -0.158265E-08  0.461E-04    1.35      52.6  T
     SCC iter.                  ...        0 min,  0.247 sec
     gradient                   ...        0 min,  0.002 sec
 * total energy  :   -27.7813238 Eh     change       -0.6193104E-02 Eh
   gradient norm :     0.1105613 Eh/α   predicted    -0.3643350E-02 ( -41.17%)
   displ. norm   :     0.3400975 α      lambda       -0.1705934E-01
   maximum displ.:     0.1486475 α      in ANC's #1, #8, #26, ...

........................................................................
.............................. CYCLE    9 ..............................
........................................................................

 iter      E             dE          RMSdq      gap      omega  full diag
   1    -28.0729948 -0.280730E+02  0.436E-01    1.57       0.0  T
   2    -28.0730292 -0.344670E-04  0.469E-01    1.45       1.0  T
   3    -28.0744291 -0.139982E-02  0.179E-01    1.51       1.0  T
   4    -28.0743035  0.125555E-03  0.107E-01    1.50       1.0  T
   5    -28.0744275 -0.124026E-03  0.383E-02    1.51       1.0  T
   6    -28.0744427 -0.152129E-04  0.136E-02    1.51       1.8  T
   7    -28.0744435 -0.717861E-06  0.414E-03    1.51       5.9  T
   8    -28.0744435 -0.157344E-07  0.196E-03    1.51      12.4  T
   9    -28.0744435 -0.236269E-07  0.856E-04    1.51      28.3  T
  10    -28.0744435 -0.450756E-08  0.301E-04    1.51      80.6  T
     SCC iter.                  ...        0 min,  0.272 sec
     gradient                   ...        0 min,  0.002 sec
 * total energy  :   -27.7918407 Eh     change       -0.1051695E-01 Eh
   gradient norm :     0.0628441 Eh/α   predicted    -0.9516269E-02 (  -9.51%)
   displ. norm   :     0.2197125 α      lambda       -0.4695280E-02
   maximum displ.:     0.1297643 α      in ANC's #1, #8, #12, ...

........................................................................
.............................. CYCLE   10 ..............................
........................................................................

 iter      E             dE          RMSdq      gap      omega  full diag
   1    -28.0811550 -0.280812E+02  0.227E-01    1.57       0.0  T
   2    -28.0811660 -0.110124E-04  0.148E-01    1.56       1.0  T
   3    -28.0810218  0.144238E-03  0.113E-01    1.57       1.0  T
   4    -28.0812469 -0.225092E-03  0.357E-02    1.56       1.0  T
   5    -28.0812519 -0.501003E-05  0.163E-02    1.57       1.5  T
   6    -28.0812545 -0.257712E-05  0.643E-03    1.57       3.8  T
   7    -28.0812546 -0.116177E-06  0.290E-03    1.57       8.4  T
   8    -28.0812546 -0.326166E-07  0.142E-03    1.57      17.0  T
   9    -28.0812546 -0.549056E-08  0.580E-04    1.57      41.8  T
  10    -28.0812546 -0.130851E-08  0.197E-04    1.57     123.2  T
     SCC iter.                  ...        0 min,  0.241 sec
     gradient                   ...        0 min,  0.077 sec
 * total energy  :   -27.7948766 Eh     change       -0.3035896E-02 Eh
   gradient norm :     0.0523328 Eh/α   predicted    -0.2460974E-02 ( -18.94%)
   displ. norm   :     0.1905564 α      lambda       -0.4823403E-02
   maximum displ.:     0.1038142 α      in ANC's #8, #12, #15, ...

........................................................................
.............................. CYCLE   11 ..............................
........................................................................

 iter      E             dE          RMSdq      gap      omega  full diag
   1    -28.0943893 -0.280944E+02  0.208E-01    1.61       0.0  T
   2    -28.0944559 -0.665989E-04  0.129E-01    1.60       1.0  T
   3    -28.0944473  0.859342E-05  0.738E-02    1.61       1.0  T
   4    -28.0944706 -0.232968E-04  0.309E-02    1.60       1.0  T
   5    -28.0944771 -0.652737E-05  0.983E-03    1.60       2.5  T
   6    -28.0944783 -0.114772E-05  0.444E-03    1.60       5.5  T
   7    -28.0944784 -0.105643E-06  0.162E-03    1.60      15.0  T
   8    -28.0944784 -0.997079E-08  0.821E-04    1.60      29.5  T
   9    -28.0944784 -0.221610E-08  0.264E-04    1.60      92.0  T
     SCC iter.                  ...        0 min,  0.459 sec
     gradient                   ...        0 min,  0.057 sec
 * total energy  :   -27.7982353 Eh     change       -0.3358694E-02 Eh
   gradient norm :     0.0515948 Eh/α   predicted    -0.2499270E-02 ( -25.59%)
   displ. norm   :     0.1827454 α      lambda       -0.4178169E-02
   maximum displ.:     0.1003926 α      in ANC's #8, #15, #7, ...

........................................................................
.............................. CYCLE   12 ..............................
........................................................................

 iter      E             dE          RMSdq      gap      omega  full diag
   1    -28.1054556 -0.281055E+02  0.224E-01    1.60       0.0  T
   2    -28.1055300 -0.744795E-04  0.148E-01    1.63       1.0  T
   3    -28.1055454 -0.153530E-04  0.944E-02    1.61       1.0  T
   4    -28.1055866 -0.412032E-04  0.400E-02    1.62       1.0  T
   5    -28.1056020 -0.154130E-04  0.156E-02    1.62       1.6  T
   6    -28.1056055 -0.354015E-05  0.513E-03    1.61       4.7  T
   7    -28.1056056 -0.722907E-07  0.186E-03    1.62      13.0  T
   8    -28.1056056 -0.186784E-07  0.701E-04    1.62      34.6  T
   9    -28.1056056 -0.111112E-08  0.314E-04    1.62      77.3  T
     SCC iter.                  ...        0 min,  0.409 sec
     gradient                   ...        0 min,  0.067 sec
 * total energy  :   -27.8010811 Eh     change       -0.2845804E-02 Eh
   gradient norm :     0.0340621 Eh/α   predicted    -0.2158853E-02 ( -24.14%)
   displ. norm   :     0.1295049 α      lambda       -0.2245185E-02
   maximum displ.:     0.0715309 α      in ANC's #8, #5, #7, ...

........................................................................
.............................. CYCLE   13 ..............................
........................................................................

 iter      E             dE          RMSdq      gap      omega  full diag
   1    -28.1091401 -0.281091E+02  0.147E-01    1.63       0.0  T
   2    -28.1091471 -0.695454E-05  0.949E-02    1.64       1.0  T
   3    -28.1090714  0.756518E-04  0.784E-02    1.63       1.0  T
   4    -28.1091736 -0.102227E-03  0.143E-02    1.64       1.7  T
   5    -28.1091753 -0.165787E-05  0.650E-03    1.64       3.7  T
   6    -28.1091756 -0.332467E-06  0.265E-03    1.64       9.1  T
   7    -28.1091756 -0.203122E-08  0.129E-03    1.64      18.8  T
   8    -28.1091756 -0.116067E-07  0.571E-04    1.64      42.5  T
   9    -28.1091756 -0.474056E-09  0.197E-04    1.64     123.2  T
     SCC iter.                  ...        0 min,  0.453 sec
     gradient                   ...        0 min,  0.062 sec
 * total energy  :   -27.8027291 Eh     change       -0.1647929E-02 Eh
   gradient norm :     0.0314900 Eh/α   predicted    -0.1141421E-02 ( -30.74%)
   displ. norm   :     0.1527371 α      lambda       -0.2136715E-02
   maximum displ.:     0.0808571 α      in ANC's #8, #5, #7, ...

........................................................................
.............................. CYCLE   14 ..............................
........................................................................

 iter      E             dE          RMSdq      gap      omega  full diag
   1    -28.1079485 -0.281079E+02  0.155E-01    1.68       0.0  T
   2    -28.1079578 -0.933051E-05  0.931E-02    1.67       1.0  T
   3    -28.1079440  0.137739E-04  0.656E-02    1.68       1.0  T
   4    -28.1079706 -0.265727E-04  0.194E-02    1.68       1.3  T
   5    -28.1079759 -0.529793E-05  0.759E-03    1.67       3.2  T
   6    -28.1079764 -0.472058E-06  0.251E-03    1.68       9.7  T
   7    -28.1079764 -0.289124E-07  0.115E-03    1.68      21.2  T
   8    -28.1079764 -0.123127E-07  0.483E-04    1.68      50.2  T
   9    -28.1079764 -0.747420E-09  0.176E-04    1.68     137.4  T
     SCC iter.                  ...        0 min,  0.278 sec
     gradient                   ...        0 min,  0.002 sec
 * total energy  :   -27.8042620 Eh     change       -0.1532986E-02 Eh
   gradient norm :     0.0322732 Eh/α   predicted    -0.1093281E-02 ( -28.68%)
   displ. norm   :     0.1442068 α      lambda       -0.1682493E-02
   maximum displ.:     0.0690976 α      in ANC's #8, #5, #7, ...

........................................................................
.............................. CYCLE   15 ..............................
........................................................................

 iter      E             dE          RMSdq      gap      omega  full diag
   1    -28.1042217 -0.281042E+02  0.142E-01    1.73       0.0  T
   2    -28.1042480 -0.263103E-04  0.900E-02    1.71       1.0  T
   3    -28.1042657 -0.176465E-04  0.521E-02    1.72       1.0  T
   4    -28.1042726 -0.688991E-05  0.134E-02    1.72       1.8  T
   5    -28.1042734 -0.844462E-06  0.507E-03    1.72       4.8  T
   6    -28.1042736 -0.170549E-06  0.248E-03    1.72       9.8  T
   7    -28.1042736 -0.248410E-07  0.124E-03    1.72      19.5  T
   8    -28.1042736 -0.235132E-07  0.453E-04    1.72      53.6  T
   9    -28.1042736 -0.119162E-08  0.192E-04    1.72     126.1  T
     SCC iter.                  ...        0 min,  0.442 sec
     gradient                   ...        0 min,  0.071 sec
 * total energy  :   -27.8054914 Eh     change       -0.1229383E-02 Eh
   gradient norm :     0.0310361 Eh/α   predicted    -0.8587421E-03 ( -30.15%)
   displ. norm   :     0.1548967 α      lambda       -0.1595038E-02
   maximum displ.:     0.0699220 α      in ANC's #5, #8, #1, ...

........................................................................
.............................. CYCLE   16 ..............................
........................................................................

 iter      E             dE          RMSdq      gap      omega  full diag
   1    -28.1004848 -0.281005E+02  0.127E-01    1.76       0.0  T
   2    -28.1005134 -0.285993E-04  0.810E-02    1.75       1.0  T
   3    -28.1005280 -0.145200E-04  0.459E-02    1.76       1.0  T
   4    -28.1005340 -0.601091E-05  0.163E-02    1.75       1.5  T
   5    -28.1005348 -0.866564E-06  0.776E-03    1.75       3.1  T
   6    -28.1005358 -0.933119E-06  0.318E-03    1.75       7.6  T
   7    -28.1005358 -0.579045E-07  0.842E-04    1.75      28.8  T
   8    -28.1005358 -0.577122E-08  0.378E-04    1.75      64.1  T
     SCC iter.                  ...        0 min,  0.475 sec
     gradient                   ...        0 min,  0.080 sec
 * total energy  :   -27.8066843 Eh     change       -0.1192881E-02 Eh
   gradient norm :     0.0320182 Eh/α   predicted    -0.8166540E-03 ( -31.54%)
   displ. norm   :     0.1855200 α      lambda       -0.1824641E-02
   maximum displ.:     0.0870175 α      in ANC's #5, #2, #8, ...

........................................................................
.............................. CYCLE   17 ..............................
........................................................................

 iter      E             dE          RMSdq      gap      omega  full diag
   1    -28.0985014 -0.280985E+02  0.128E-01    1.79       0.0  T
   2    -28.0985216 -0.201890E-04  0.795E-02    1.77       1.0  T
   3    -28.0985237 -0.217446E-05  0.500E-02    1.79       1.0  T
   4    -28.0985368 -0.130415E-04  0.174E-02    1.78       1.4  T
   5    -28.0985383 -0.154956E-05  0.902E-03    1.78       2.7  T
   6    -28.0985394 -0.110864E-05  0.328E-03    1.78       7.4  T
   7    -28.0985395 -0.552640E-07  0.778E-04    1.78      31.2  T
   8    -28.0985395 -0.308455E-08  0.458E-04    1.78      52.9  T
     SCC iter.                  ...        0 min,  0.379 sec
     gradient                   ...        0 min,  0.082 sec
 * total energy  :   -27.8080610 Eh     change       -0.1376703E-02 Eh
   gradient norm :     0.0329181 Eh/α   predicted    -0.9437191E-03 ( -31.45%)
   displ. norm   :     0.2293130 α      lambda       -0.2171161E-02
   maximum displ.:     0.1088960 α      in ANC's #5, #2, #11, ...

........................................................................
.............................. CYCLE   18 ..............................
........................................................................

 iter      E             dE          RMSdq      gap      omega  full diag
   1    -28.0999214 -0.280999E+02  0.140E-01    1.79       0.0  T
   2    -28.0999313 -0.981649E-05  0.809E-02    1.79       1.0  T
   3    -28.0999042  0.270613E-04  0.540E-02    1.80       1.0  T
   4    -28.0999399 -0.356498E-04  0.160E-02    1.79       1.5  T
   5    -28.0999412 -0.131550E-05  0.950E-03    1.79       2.6  T
   6    -28.0999421 -0.917762E-06  0.292E-03    1.79       8.3  T
   7    -28.0999422 -0.725515E-07  0.115E-03    1.79      21.1  T
   8    -28.0999422 -0.776108E-08  0.568E-04    1.79      42.7  T
   9    -28.0999422 -0.991946E-09  0.221E-04    1.79     109.5  T
     SCC iter.                  ...        0 min,  0.448 sec
     gradient                   ...        0 min,  0.072 sec
 * total energy  :   -27.8097119 Eh     change       -0.1650847E-02 Eh
   gradient norm :     0.0337202 Eh/α   predicted    -0.1142667E-02 ( -30.78%)
   displ. norm   :     0.2730364 α      lambda       -0.2557958E-02
   maximum displ.:     0.1308264 α      in ANC's #5, #2, #11, ...

........................................................................
.............................. CYCLE   19 ..............................
........................................................................

 iter      E             dE          RMSdq      gap      omega  full diag
   1    -28.1056818 -0.281057E+02  0.163E-01    1.78       0.0  T
   2    -28.1056970 -0.151999E-04  0.866E-02    1.78       1.0  T
   3    -28.1056822  0.148030E-04  0.490E-02    1.79       1.0  T
   4    -28.1057037 -0.215361E-04  0.168E-02    1.78       1.4  T
   5    -28.1057047 -0.943879E-06  0.891E-03    1.78       2.7  T
   6    -28.1057054 -0.751252E-06  0.385E-03    1.78       6.3  T
   7    -28.1057056 -0.153456E-06  0.142E-03    1.78      17.1  T
   8    -28.1057056 -0.711690E-08  0.759E-04    1.78      32.0  T
   9    -28.1057056 -0.278531E-08  0.323E-04    1.78      75.1  T
     SCC iter.                  ...        0 min,  0.511 sec
     gradient                   ...        0 min,  0.076 sec
 * total energy  :   -27.8116681 Eh     change       -0.1956239E-02 Eh
   gradient norm :     0.0347472 Eh/α   predicted    -0.1374322E-02 ( -29.75%)
   displ. norm   :     0.3301529 α      lambda       -0.2895951E-02
   maximum displ.:     0.1577742 α      in ANC's #5, #2, #11, ...

........................................................................
.............................. CYCLE   20 ..............................
........................................................................

 iter      E             dE          RMSdq      gap      omega  full diag
   1    -28.1144437 -0.281144E+02  0.189E-01    1.77       0.0  T
   2    -28.1144751 -0.314365E-04  0.939E-02    1.76       1.0  T
   3    -28.1144674  0.775857E-05  0.624E-02    1.77       1.0  T
   4    -28.1144886 -0.212123E-04  0.192E-02    1.77       1.3  T
   5    -28.1144896 -0.102192E-05  0.892E-03    1.77       2.7  T
   6    -28.1144898 -0.247611E-06  0.579E-03    1.77       4.2  T
   7    -28.1144903 -0.429975E-06  0.147E-03    1.77      16.5  T
   8    -28.1144903 -0.189101E-08  0.733E-04    1.77      33.1  T
   9    -28.1144903 -0.133695E-08  0.316E-04    1.77      76.9  T
     SCC iter.                  ...        0 min,  0.426 sec
     gradient                   ...        0 min,  0.077 sec
 * total energy  :   -27.8139290 Eh     change       -0.2260932E-02 Eh
   gradient norm :     0.0374198 Eh/α   predicted    -0.1605801E-02 ( -28.98%)
   displ. norm   :     0.3914937 α      lambda       -0.3411983E-02
   maximum displ.:     0.1894607 α      in ANC's #5, #2, #11, ...
 * RMSD in coord.:     0.7207709 α      energy gain  -0.2502817E+01 Eh

generating ANC from exact Hessian ...
Using Lindh-Hessian (1995)
 Shifting diagonal of input Hessian by    1.5419808341735602E-002
 Lowest  eigenvalues of input Hessian
    0.010000    0.000000    0.000000    0.000000    0.000000    0.000000
    0.000000    0.018151    0.021121    0.024246    0.027168    0.028673
    0.031332    0.043026    0.046103    0.056207    0.061250    0.081474
 Highest eigenvalues
    2.018778    2.046475    2.239407    3.312778    3.703187    6.707052


........................................................................
.............................. CYCLE   21 ..............................
........................................................................

 iter      E             dE          RMSdq      gap      omega  full diag
   1    -28.1238121 -0.281238E+02  0.254E-01    1.78       0.0  T
   2    -28.1238848 -0.726853E-04  0.144E-01    1.75       1.0  T
   3    -28.1239485 -0.636601E-04  0.831E-02    1.77       1.0  T
   4    -28.1239694 -0.209241E-04  0.233E-02    1.76       1.0  T
   5    -28.1239698 -0.416710E-06  0.144E-02    1.76       1.7  T
   6    -28.1239718 -0.199788E-05  0.643E-03    1.76       3.8  T
   7    -28.1239721 -0.302922E-06  0.219E-03    1.76      11.1  T
   8    -28.1239721 -0.245549E-07  0.139E-03    1.76      17.5  T
   9    -28.1239721 -0.450106E-08  0.377E-04    1.76      64.3  T
  10    -28.1239721 -0.371219E-09  0.161E-04    1.76     150.6  T
     SCC iter.                  ...        0 min,  0.503 sec
     gradient                   ...        0 min,  0.068 sec
 * total energy  :   -27.8165517 Eh     change       -0.2622667E-02 Eh
   gradient norm :     0.0408224 Eh/α   predicted     0.0000000E+00 (-100.00%)
   displ. norm   :     0.3945511 α      lambda       -0.7473206E-02
   maximum displ.:     0.2922475 α      in ANC's #2, #10, #3, ...

........................................................................
.............................. CYCLE   22 ..............................
........................................................................

 iter      E             dE          RMSdq      gap      omega  full diag
   1    -28.1231646 -0.281232E+02  0.240E-01    1.84       0.0  T
   2    -28.1232010 -0.363698E-04  0.151E-01    1.83       1.0  T
   3    -28.1231673  0.337380E-04  0.119E-01    1.83       1.0  T
   4    -28.1232853 -0.118054E-03  0.289E-02    1.83       1.0  T
   5    -28.1232924 -0.706777E-05  0.154E-02    1.83       1.6  T
   6    -28.1232955 -0.306903E-05  0.519E-03    1.83       4.7  T
   7    -28.1232955 -0.306740E-07  0.209E-03    1.83      11.6  T
   8    -28.1232955 -0.144370E-07  0.111E-03    1.83      21.9  T
   9    -28.1232955 -0.419548E-08  0.241E-04    1.83     100.5  T
  10    -28.1232955 -0.188656E-09  0.118E-04    1.83     205.0  T
     SCC iter.                  ...        0 min,  0.548 sec
     gradient                   ...        0 min,  0.064 sec
 * total energy  :   -27.8221173 Eh     change       -0.5565580E-02 Eh
   gradient norm :     0.0282155 Eh/α   predicted    -0.4318284E-02 ( -22.41%)
   displ. norm   :     0.5765519 α      lambda       -0.6148038E-02
   maximum displ.:     0.4327673 α      in ANC's #2, #1, #9, ...

........................................................................
.............................. CYCLE   23 ..............................
........................................................................

 iter      E             dE          RMSdq      gap      omega  full diag
   1    -28.1196252 -0.281196E+02  0.372E-01    1.98       0.0  T
   2    -28.1197907 -0.165539E-03  0.203E-01    1.93       1.0  T
   3    -28.1198563 -0.655853E-04  0.127E-01    1.96       1.0  T
   4    -28.1199001 -0.437719E-04  0.437E-02    1.95       1.0  T
   5    -28.1199108 -0.107326E-04  0.233E-02    1.95       1.0  T
   6    -28.1199166 -0.574119E-05  0.107E-02    1.95       2.3  T
   7    -28.1199176 -0.104326E-05  0.302E-03    1.95       8.0  T
   8    -28.1199177 -0.561477E-07  0.174E-03    1.95      13.9  T
   9    -28.1199177 -0.349079E-08  0.696E-04    1.95      34.8  T
  10    -28.1199177 -0.317014E-08  0.253E-04    1.95      95.8  T
     SCC iter.                  ...        0 min,  0.501 sec
     gradient                   ...        0 min,  0.076 sec
 * total energy  :   -27.8263646 Eh     change       -0.4247277E-02 Eh
   gradient norm :     0.0227325 Eh/α   predicted    -0.4095887E-02 (  -3.56%)
   displ. norm   :     0.4923268 α      lambda       -0.3022783E-02
   maximum displ.:     0.4109886 α      in ANC's #2, #5, #3, ...

........................................................................
.............................. CYCLE   24 ..............................
........................................................................

 iter      E             dE          RMSdq      gap      omega  full diag
   1    -28.1180272 -0.281180E+02  0.239E-01    2.04       0.0  T
   2    -28.1180830 -0.557960E-04  0.134E-01    2.00       1.0  T
   3    -28.1181253 -0.423465E-04  0.883E-02    2.03       1.0  T
   4    -28.1181429 -0.175482E-04  0.419E-02    2.02       1.0  T
   5    -28.1181685 -0.255828E-04  0.133E-02    2.02       1.8  T
   6    -28.1181692 -0.743576E-06  0.515E-03    2.02       4.7  T
   7    -28.1181694 -0.160535E-06  0.205E-03    2.02      11.8  T
   8    -28.1181694 -0.229904E-07  0.117E-03    2.02      20.8  T
   9    -28.1181694 -0.434881E-09  0.455E-04    2.02      53.3  T
  10    -28.1181694 -0.195892E-08  0.143E-04    2.02     169.3  T
     SCC iter.                  ...        0 min,  0.331 sec
     gradient                   ...        0 min,  0.080 sec
 * total energy  :   -27.8286432 Eh     change       -0.2278662E-02 Eh
   gradient norm :     0.0315748 Eh/α   predicted    -0.1877726E-02 ( -17.60%)
   displ. norm   :     0.4850503 α      lambda       -0.2881675E-02
   maximum displ.:     0.3859752 α      in ANC's #2, #5, #1, ...

........................................................................
.............................. CYCLE   25 ..............................
........................................................................

 iter      E             dE          RMSdq      gap      omega  full diag
   1    -28.1215105 -0.281215E+02  0.253E-01    2.10       0.0  T
   2    -28.1215635 -0.530317E-04  0.134E-01    2.07       1.0  T
   3    -28.1215881 -0.245664E-04  0.912E-02    2.09       1.0  T
   4    -28.1216107 -0.226389E-04  0.317E-02    2.08       1.0  T
   5    -28.1216228 -0.120710E-04  0.144E-02    2.08       1.7  T
   6    -28.1216243 -0.154116E-05  0.398E-03    2.08       6.1  T
   7    -28.1216245 -0.107386E-06  0.186E-03    2.08      13.0  T
   8    -28.1216245 -0.161748E-07  0.107E-03    2.08      22.7  T
   9    -28.1216245 -0.160212E-08  0.391E-04    2.08      62.0  T
  10    -28.1216245 -0.961126E-09  0.145E-04    2.08     167.8  T
     SCC iter.                  ...        0 min,  0.410 sec
     gradient                   ...        0 min,  0.069 sec
 * total energy  :   -27.8308812 Eh     change       -0.2237963E-02 Eh
   gradient norm :     0.0279614 Eh/α   predicted    -0.1779822E-02 ( -20.47%)
   displ. norm   :     0.4410809 α      lambda       -0.2389304E-02
   maximum displ.:     0.3308970 α      in ANC's #2, #5, #6, ...

........................................................................
.............................. CYCLE   26 ..............................
........................................................................

 iter      E             dE          RMSdq      gap      omega  full diag
   1    -28.1287916 -0.281288E+02  0.222E-01    2.13       0.0  T
   2    -28.1288150 -0.234297E-04  0.118E-01    2.12       1.0  T
   3    -28.1287984  0.165710E-04  0.573E-02    2.13       1.0  T
   4    -28.1288159 -0.174575E-04  0.233E-02    2.12       1.0  T
   5    -28.1288207 -0.487512E-05  0.100E-02    2.12       2.4  T
   6    -28.1288218 -0.110176E-05  0.426E-03    2.12       5.7  T
   7    -28.1288220 -0.157438E-06  0.110E-03    2.12      22.0  T
   8    -28.1288220 -0.259487E-08  0.571E-04    2.12      42.4  T
   9    -28.1288220 -0.469342E-09  0.240E-04    2.12     100.9  T
     SCC iter.                  ...        0 min,  0.373 sec
     gradient                   ...        0 min,  0.068 sec
 * total energy  :   -27.8325502 Eh     change       -0.1669014E-02 Eh
   gradient norm :     0.0161162 Eh/α   predicted    -0.1427085E-02 ( -14.50%)
   displ. norm   :     0.3777575 α      lambda       -0.1026302E-02
   maximum displ.:     0.2787516 α      in ANC's #2, #5, #3, ...

........................................................................
.............................. CYCLE   27 ..............................
........................................................................

 iter      E             dE          RMSdq      gap      omega  full diag
   1    -28.1298749 -0.281299E+02  0.213E-01    2.18       0.0  T
   2    -28.1299209 -0.460171E-04  0.990E-02    2.16       1.0  T
   3    -28.1299372 -0.162851E-04  0.677E-02    2.17       1.0  T
   4    -28.1299526 -0.153851E-04  0.163E-02    2.16       1.5  T
   5    -28.1299527 -0.107547E-06  0.687E-03    2.17       3.5  T
   6    -28.1299531 -0.390243E-06  0.399E-03    2.17       6.1  T
   7    -28.1299533 -0.223987E-06  0.136E-03    2.17      17.8  T
   8    -28.1299533 -0.849183E-08  0.860E-04    2.17      28.2  T
   9    -28.1299533 -0.101909E-08  0.347E-04    2.17      69.8  T
     SCC iter.                  ...        0 min,  0.317 sec
     gradient                   ...        0 min,  0.076 sec
 * total energy  :   -27.8331796 Eh     change       -0.6294419E-03 Eh
   gradient norm :     0.0163066 Eh/α   predicted    -0.5863797E-03 (  -6.84%)
   displ. norm   :     0.1952367 α      lambda       -0.4359309E-03
   maximum displ.:     0.1316658 α      in ANC's #2, #1, #3, ...

........................................................................
.............................. CYCLE   28 ..............................
........................................................................

 iter      E             dE          RMSdq      gap      omega  full diag
   1    -28.1332231 -0.281332E+02  0.107E-01    2.18       0.0  T
   2    -28.1332504 -0.273219E-04  0.896E-02    2.19       1.0  T
   3    -28.1332751 -0.246621E-04  0.437E-02    2.19       1.0  T
   4    -28.1332728  0.223196E-05  0.145E-02    2.19       1.7  T
   5    -28.1332743 -0.146077E-05  0.990E-03    2.19       2.4  T
   6    -28.1332757 -0.141215E-05  0.265E-03    2.19       9.2  T
   7    -28.1332757 -0.173600E-07  0.994E-04    2.19      24.4  T
   8    -28.1332757 -0.824419E-08  0.450E-04    2.19      53.8  T
     SCC iter.                  ...        0 min,  0.269 sec
     gradient                   ...        0 min,  0.077 sec
 * total energy  :   -27.8333524 Eh     change       -0.1727268E-03 Eh
   gradient norm :     0.0185505 Eh/α   predicted    -0.2262754E-03 (  31.00%)
   displ. norm   :     0.0722652 α      lambda       -0.2303736E-03
   maximum displ.:     0.0542892 α      in ANC's #3, #5, #11, ...

........................................................................
.............................. CYCLE   29 ..............................
........................................................................

 iter      E             dE          RMSdq      gap      omega  full diag
   1    -28.1344002 -0.281344E+02  0.658E-02    2.19       0.0  T
   2    -28.1344035 -0.329013E-05  0.358E-02    2.19       1.0  T
   3    -28.1344033  0.146233E-06  0.223E-02    2.19       1.1  T
   4    -28.1344061 -0.281229E-05  0.605E-03    2.19       4.0  T
   5    -28.1344060  0.148168E-06  0.510E-03    2.19       4.8  T
   6    -28.1344063 -0.323882E-06  0.131E-03    2.19      18.5  T
   7    -28.1344063 -0.684602E-08  0.626E-04    2.19      38.7  T
   8    -28.1344063 -0.930253E-09  0.379E-04    2.19      64.0  T
     SCC iter.                  ...        0 min,  0.387 sec
     gradient                   ...        0 min,  0.064 sec
 * total energy  :   -27.8334547 Eh     change       -0.1023374E-03 Eh
   gradient norm :     0.0106476 Eh/α   predicted    -0.1157887E-03 (  13.14%)
   displ. norm   :     0.1055986 α      lambda       -0.1716727E-03
   maximum displ.:     0.0739001 α      in ANC's #1, #3, #11, ...

........................................................................
.............................. CYCLE   30 ..............................
........................................................................

 iter      E             dE          RMSdq      gap      omega  full diag
   1    -28.1323739 -0.281324E+02  0.810E-02    2.20       0.0  T
   2    -28.1323842 -0.103408E-04  0.427E-02    2.19       1.0  T
   3    -28.1323898 -0.551133E-05  0.228E-02    2.20       1.1  T
   4    -28.1323911 -0.138187E-05  0.700E-03    2.20       3.5  T
   5    -28.1323911  0.150538E-07  0.436E-03    2.20       5.6  T
   6    -28.1323913 -0.165242E-06  0.151E-03    2.20      16.1  T
   7    -28.1323913 -0.308344E-07  0.546E-04    2.20      44.5  T
   8    -28.1323913 -0.276343E-08  0.256E-04    2.20      94.9  T
     SCC iter.                  ...        0 min,  0.283 sec
     gradient                   ...        0 min,  0.066 sec
 * total energy  :   -27.8335581 Eh     change       -0.1033917E-03 Eh
   gradient norm :     0.0058871 Eh/α   predicted    -0.8679361E-04 ( -16.05%)
   displ. norm   :     0.1304774 α      lambda       -0.1540935E-03
   maximum displ.:     0.0854124 α      in ANC's #1, #3, #6, ...

........................................................................
.............................. CYCLE   31 ..............................
........................................................................

 iter      E             dE          RMSdq      gap      omega  full diag
   1    -28.1322577 -0.281323E+02  0.715E-02    2.19       0.0  T
   2    -28.1322618 -0.419051E-05  0.417E-02    2.20       1.0  T
   3    -28.1322633 -0.150147E-05  0.244E-02    2.19       1.0  T
   4    -28.1322654 -0.202524E-05  0.759E-03    2.20       3.2  T
   5    -28.1322657 -0.358560E-06  0.561E-03    2.20       4.3  T
   6    -28.1322661 -0.387585E-06  0.761E-04    2.20      31.9  T
   7    -28.1322661 -0.818716E-08  0.256E-04    2.20      94.7  T
     SCC iter.                  ...        0 min,  0.299 sec
     gradient                   ...        0 min,  0.072 sec
 * total energy  :   -27.8336772 Eh     change       -0.1191379E-03 Eh
   gradient norm :     0.0100335 Eh/α   predicted    -0.7835822E-04 ( -34.23%)
   displ. norm   :     0.2387311 α      lambda       -0.2062952E-03
   maximum displ.:     0.1541788 α      in ANC's #1, #3, #4, ...

........................................................................
.............................. CYCLE   32 ..............................
........................................................................

 iter      E             dE          RMSdq      gap      omega  full diag
   1    -28.1312791 -0.281313E+02  0.118E-01    2.19       0.0  T
   2    -28.1312929 -0.137079E-04  0.722E-02    2.21       1.0  T
   3    -28.1313018 -0.897351E-05  0.408E-02    2.20       1.0  T
   4    -28.1313051 -0.327413E-05  0.138E-02    2.20       1.8  T
   5    -28.1313070 -0.194183E-05  0.879E-03    2.20       2.8  T
   6    -28.1313079 -0.868455E-06  0.153E-03    2.20      15.9  T
   7    -28.1313079 -0.318057E-07  0.471E-04    2.20      51.4  T
   8    -28.1313079 -0.461331E-09  0.272E-04    2.20      89.2  T
     SCC iter.                  ...        0 min,  0.383 sec
     gradient                   ...        0 min,  0.073 sec
 * total energy  :   -27.8338074 Eh     change       -0.1301902E-03 Eh
   gradient norm :     0.0172844 Eh/α   predicted    -0.1090275E-03 ( -16.26%)
   displ. norm   :     0.1583187 α      lambda       -0.1508455E-03
   maximum displ.:     0.1040954 α      in ANC's #1, #3, #4, ...

........................................................................
.............................. CYCLE   33 ..............................
........................................................................

 iter      E             dE          RMSdq      gap      omega  full diag
   1    -28.1328092 -0.281328E+02  0.710E-02    2.20       0.0  T
   2    -28.1328107 -0.144743E-05  0.395E-02    2.20       1.0  T
   3    -28.1328023  0.841618E-05  0.268E-02    2.20       1.0  T
   4    -28.1328121 -0.980132E-05  0.676E-03    2.20       3.6  T
   5    -28.1328121 -0.101709E-07  0.441E-03    2.20       5.5  T
   6    -28.1328123 -0.215547E-06  0.632E-04    2.20      38.3  T
   7    -28.1328123 -0.331329E-08  0.293E-04    2.20      82.9  T
     SCC iter.                  ...        0 min,  0.349 sec
     gradient                   ...        0 min,  0.077 sec
 * total energy  :   -27.8339045 Eh     change       -0.9705713E-04 Eh
   gradient norm :     0.0148805 Eh/α   predicted    -0.7731179E-04 ( -20.34%)
   displ. norm   :     0.2817019 α      lambda       -0.2108514E-03
   maximum displ.:     0.1808633 α      in ANC's #1, #3, #4, ...

........................................................................
.............................. CYCLE   34 ..............................
........................................................................

 iter      E             dE          RMSdq      gap      omega  full diag
   1    -28.1321280 -0.281321E+02  0.954E-02    2.21       0.0  T
   2    -28.1321316 -0.356538E-05  0.537E-02    2.22       1.0  T
   3    -28.1321176  0.139361E-04  0.333E-02    2.21       1.0  T
   4    -28.1321334 -0.157931E-04  0.107E-02    2.21       2.3  T
   5    -28.1321340 -0.570978E-06  0.579E-03    2.21       4.2  T
   6    -28.1321343 -0.259915E-06  0.139E-03    2.21      17.5  T
   7    -28.1321343 -0.102046E-07  0.490E-04    2.21      49.5  T
   8    -28.1321343 -0.404800E-09  0.288E-04    2.21      84.1  T
     SCC iter.                  ...        0 min,  0.550 sec
     gradient                   ...        0 min,  0.072 sec
 * total energy  :   -27.8340382 Eh     change       -0.1337684E-03 Eh
   gradient norm :     0.0132378 Eh/α   predicted    -0.1137977E-03 ( -14.93%)
   displ. norm   :     0.1395512 α      lambda       -0.1886515E-03
   maximum displ.:     0.0865178 α      in ANC's #1, #3, #4, ...

........................................................................
.............................. CYCLE   35 ..............................
........................................................................

 iter      E             dE          RMSdq      gap      omega  full diag
   1    -28.1345986 -0.281346E+02  0.544E-02    2.23       0.0  T
   2    -28.1346045 -0.596699E-05  0.378E-02    2.22       1.0  T
   3    -28.1346086 -0.409371E-05  0.185E-02    2.23       1.3  T
   4    -28.1346089 -0.296300E-06  0.607E-03    2.23       4.0  T
   5    -28.1346090 -0.338466E-07  0.404E-03    2.23       6.0  T
   6    -28.1346092 -0.194584E-06  0.988E-04    2.23      24.6  T
   7    -28.1346092 -0.658849E-08  0.446E-04    2.23      54.4  T
     SCC iter.                  ...        0 min,  0.329 sec
     gradient                   ...        0 min,  0.080 sec
 * total energy  :   -27.8341411 Eh     change       -0.1028560E-03 Eh
   gradient norm :     0.0089000 Eh/α   predicted    -0.9616238E-04 (  -6.51%)
   displ. norm   :     0.2868756 α      lambda       -0.1499354E-03
   maximum displ.:     0.2131708 α      in ANC's #1, #3, #4, ...

........................................................................
.............................. CYCLE   36 ..............................
........................................................................

 iter      E             dE          RMSdq      gap      omega  full diag
   1    -28.1330667 -0.281331E+02  0.106E-01    2.23       0.0  T
   2    -28.1330733 -0.653890E-05  0.557E-02    2.22       1.0  T
   3    -28.1330683  0.495473E-05  0.336E-02    2.23       1.0  T
   4    -28.1330769 -0.857969E-05  0.113E-02    2.22       2.1  T
   5    -28.1330767  0.210725E-06  0.885E-03    2.22       2.7  T
   6    -28.1330776 -0.937381E-06  0.143E-03    2.22      16.9  T
   7    -28.1330776 -0.236979E-07  0.612E-04    2.22      39.6  T
   8    -28.1330776 -0.754056E-09  0.332E-04    2.22      73.1  T
     SCC iter.                  ...        0 min,  0.447 sec
     gradient                   ...        0 min,  0.060 sec
 * total energy  :   -27.8341552 Eh     change       -0.1414290E-04 Eh
   gradient norm :     0.0251665 Eh/α   predicted    -0.8113905E-04 ( 473.71%)
   displ. norm   :     0.0837793 α      lambda       -0.1825978E-03
   maximum displ.:     0.0640696 α      in ANC's #1, #3, #2, ...

........................................................................
.............................. CYCLE   37 ..............................
........................................................................

 iter      E             dE          RMSdq      gap      omega  full diag
   1    -28.1342351 -0.281342E+02  0.448E-02    2.23       0.0  T
   2    -28.1342396 -0.448970E-05  0.231E-02    2.23       1.1  T
   3    -28.1342415 -0.186382E-05  0.132E-02    2.23       1.8  T
   4    -28.1342419 -0.440355E-06  0.584E-03    2.23       4.2  T
   5    -28.1342421 -0.186158E-06  0.337E-03    2.23       7.2  T
   6    -28.1342422 -0.119507E-06  0.101E-03    2.23      24.0  T
   7    -28.1342422 -0.518437E-09  0.439E-04    2.23      55.2  T
   8    -28.1342422 -0.182393E-08  0.192E-04    2.23     126.1  T
     SCC iter.                  ...        0 min,  0.438 sec
     gradient                   ...        0 min,  0.072 sec
 * total energy  :   -27.8342545 Eh     change       -0.9921750E-04 Eh
   gradient norm :     0.0040102 Eh/α   predicted    -0.9193892E-04 (  -7.34%)
   displ. norm   :     0.1287038 α      lambda       -0.6578816E-04
   maximum displ.:     0.0776715 α      in ANC's #3, #1, #4, ...

........................................................................
.............................. CYCLE   38 ..............................
........................................................................

 iter      E             dE          RMSdq      gap      omega  full diag
   1    -28.1333909 -0.281334E+02  0.573E-02    2.23       0.0  T
   2    -28.1333949 -0.401965E-05  0.300E-02    2.24       1.0  T
   3    -28.1333969 -0.203462E-05  0.193E-02    2.23       1.3  T
   4    -28.1333977 -0.823132E-06  0.534E-03    2.24       4.5  T
   5    -28.1333978 -0.770263E-07  0.275E-03    2.23       8.8  T
   6    -28.1333979 -0.664389E-07  0.118E-03    2.23      20.5  T
   7    -28.1333979 -0.186677E-07  0.348E-04    2.23      69.7  T
   8    -28.1333979 -0.964562E-09  0.176E-04    2.23     137.8  T
     SCC iter.                  ...        0 min,  0.390 sec
     gradient                   ...        0 min,  0.080 sec
 * total energy  :   -27.8343023 Eh     change       -0.4781393E-04 Eh
   gradient norm :     0.0072055 Eh/α   predicted    -0.3343850E-04 ( -30.07%)
   displ. norm   :     0.2367452 α      lambda       -0.1064629E-03
   maximum displ.:     0.1542953 α      in ANC's #1, #3, #4, ...

........................................................................
.............................. CYCLE   39 ..............................
........................................................................

 iter      E             dE          RMSdq      gap      omega  full diag
   1    -28.1332594 -0.281333E+02  0.920E-02    2.24       0.0  T
   2    -28.1332670 -0.757688E-05  0.468E-02    2.24       1.0  T
   3    -28.1332695 -0.250910E-05  0.306E-02    2.24       1.0  T
   4    -28.1332724 -0.293755E-05  0.893E-03    2.24       2.7  T
   5    -28.1332724  0.286451E-07  0.530E-03    2.24       4.6  T
   6    -28.1332728 -0.349249E-06  0.160E-03    2.24      15.2  T
   7    -28.1332728 -0.344246E-07  0.630E-04    2.24      38.5  T
   8    -28.1332728 -0.204227E-08  0.337E-04    2.24      72.0  T
     SCC iter.                  ...        0 min,  0.351 sec
     gradient                   ...        0 min,  0.066 sec
 * total energy  :   -27.8343632 Eh     change       -0.6089829E-04 Eh
   gradient norm :     0.0044451 Eh/α   predicted    -0.5621355E-04 (  -7.69%)
   displ. norm   :     0.0938745 α      lambda       -0.3613128E-04
   maximum displ.:     0.0566602 α      in ANC's #3, #1, #28, ...

........................................................................
.............................. CYCLE   40 ..............................
........................................................................

 iter      E             dE          RMSdq      gap      omega  full diag
   1    -28.1334790 -0.281335E+02  0.311E-02    2.24       0.0  T
   2    -28.1334793 -0.300585E-06  0.170E-02    2.24       1.4  T
   3    -28.1334792  0.550491E-07  0.457E-03    2.24       5.3  T
   4    -28.1334793 -0.245947E-07  0.286E-03    2.24       8.5  T
   5    -28.1334793 -0.576802E-07  0.114E-03    2.24      21.2  T
   6    -28.1334793 -0.211485E-07  0.437E-04    2.24      55.5  T
   7    -28.1334793 -0.177965E-08  0.120E-04    2.24     202.2  T
     SCC iter.                  ...        0 min,  0.326 sec
     gradient                   ...        0 min,  0.061 sec
 * total energy  :   -27.8343896 Eh     change       -0.2637819E-04 Eh
   gradient norm :     0.0040208 Eh/α   predicted    -0.1822661E-04 ( -30.90%)
   displ. norm   :     0.0985984 α      lambda       -0.5634206E-04
   maximum displ.:     0.0534032 α      in ANC's #3, #1, #5, ...

........................................................................
.............................. CYCLE   41 ..............................
........................................................................

 iter      E             dE          RMSdq      gap      omega  full diag
   1    -28.1351781 -0.281352E+02  0.385E-02    2.25       0.0  T
   2    -28.1351793 -0.115174E-05  0.226E-02    2.25       1.1  T
   3    -28.1351788  0.435412E-06  0.110E-02    2.25       2.2  T
   4    -28.1351795 -0.651005E-06  0.347E-03    2.25       7.0  T
   5    -28.1351795 -0.446509E-07  0.161E-03    2.25      15.1  T
   6    -28.1351796 -0.344435E-07  0.940E-04    2.25      25.8  T
   7    -28.1351796 -0.931056E-08  0.201E-04    2.25     120.6  T
     SCC iter.                  ...        0 min,  0.093 sec
     gradient                   ...        0 min,  0.073 sec
 * total energy  :   -27.8344148 Eh     change       -0.2526603E-04 Eh
   gradient norm :     0.0070314 Eh/α   predicted    -0.2844406E-04 (  12.58%)
   displ. norm   :     0.1935284 α      lambda       -0.4365241E-04
   maximum displ.:     0.1152113 α      in ANC's #3, #1, #4, ...

........................................................................
.............................. CYCLE   42 ..............................
........................................................................

 iter      E             dE          RMSdq      gap      omega  full diag
   1    -28.1335250 -0.281335E+02  0.720E-02    2.24       0.0  T
   2    -28.1335269 -0.196197E-05  0.392E-02    2.25       1.0  T
   3    -28.1335256  0.131006E-05  0.172E-02    2.24       1.4  T
   4    -28.1335274 -0.181899E-05  0.553E-03    2.24       4.4  T
   5    -28.1335274  0.386467E-07  0.371E-03    2.24       6.5  T
   6    -28.1335276 -0.189510E-06  0.901E-04    2.24      26.9  T
   7    -28.1335276 -0.107627E-07  0.316E-04    2.24      76.6  T
     SCC iter.                  ...        0 min,  0.326 sec
     gradient                   ...        0 min,  0.079 sec
 * total energy  :   -27.8344191 Eh     change       -0.4284866E-05 Eh
   gradient norm :     0.0047143 Eh/α   predicted    -0.2264457E-04 ( 428.48%)
   displ. norm   :     0.0954892 α      lambda       -0.4125286E-04
   maximum displ.:     0.0584841 α      in ANC's #1, #3, #4, ...
 * RMSD in coord.:     0.7602159 α      energy gain  -0.2049007E-01 Eh

generating ANC from exact Hessian ...
Using Lindh-Hessian (1995)
 Shifting diagonal of input Hessian by    1.6964640774400887E-002
 Lowest  eigenvalues of input Hessian
    0.010000    0.000000    0.000000    0.000000    0.000000    0.000000
    0.000000    0.020119    0.022120    0.026039    0.026795    0.030991
    0.032375    0.040507    0.045360    0.059850    0.060453    0.077032
 Highest eigenvalues
    2.016620    2.048145    2.311609    3.225213    3.529049    6.600466


........................................................................
.............................. CYCLE   43 ..............................
........................................................................

 iter      E             dE          RMSdq      gap      omega  full diag
   1    -28.1346707 -0.281347E+02  0.369E-02    2.24       0.0  T
   2    -28.1346713 -0.588168E-06  0.191E-02    2.24       1.3  T
   3    -28.1346708  0.464425E-06  0.104E-02    2.24       2.3  T
   4    -28.1346714 -0.599938E-06  0.406E-03    2.24       6.0  T
   5    -28.1346715 -0.864070E-07  0.215E-03    2.24      11.3  T
   6    -28.1346715 -0.535141E-07  0.477E-04    2.24      50.8  T
   7    -28.1346716 -0.173826E-08  0.210E-04    2.24     115.5  T
     SCC iter.                  ...        0 min,  0.329 sec
     gradient                   ...        0 min,  0.071 sec
 * total energy  :   -27.8344387 Eh     change       -0.1962425E-04 Eh
   gradient norm :     0.0030848 Eh/α   predicted     0.0000000E+00 (-100.00%)
   displ. norm   :     0.0308988 α      lambda       -0.2141124E-04
   maximum displ.:     0.0235453 α      in ANC's #1, #3, #5, ...

........................................................................
.............................. CYCLE   44 ..............................
........................................................................

 iter      E             dE          RMSdq      gap      omega  full diag
   1    -28.1346072 -0.281346E+02  0.172E-02    2.24       0.0  T
   2    -28.1346072 -0.658788E-07  0.937E-03    2.24       2.6  T
   3    -28.1346065  0.740826E-06  0.827E-03    2.24       2.9  T
   4    -28.1346075 -0.974050E-06  0.174E-03    2.24      13.9  T
   5    -28.1346074  0.121847E-07  0.122E-03    2.24      19.9  T
   6    -28.1346075 -0.198520E-07  0.208E-04    2.24     116.9  T
   7    -28.1346075 -0.235264E-09  0.825E-05    2.24     294.1  T
     SCC iter.                  ...        0 min,  0.301 sec
     gradient                   ...        0 min,  0.056 sec
 * total energy  :   -27.8344528 Eh     change       -0.1409884E-04 Eh
   gradient norm :     0.0014290 Eh/α   predicted    -0.1071476E-04 ( -24.00%)
   displ. norm   :     0.0875771 α      lambda       -0.3030606E-04
   maximum displ.:     0.0498806 α      in ANC's #5, #3, #1, ...

........................................................................
.............................. CYCLE   45 ..............................
........................................................................

 iter      E             dE          RMSdq      gap      omega  full diag
   1    -28.1344480 -0.281344E+02  0.344E-02    2.24       0.0  T
   2    -28.1344484 -0.332267E-06  0.181E-02    2.24       1.3  T
   3    -28.1344483  0.482503E-07  0.579E-03    2.24       4.2  T
   4    -28.1344484 -0.860826E-07  0.310E-03    2.24       7.8  T
   5    -28.1344485 -0.400449E-07  0.623E-04    2.24      38.9  T
   6    -28.1344485 -0.142591E-08  0.291E-04    2.24      83.2  T
     SCC iter.                  ...        0 min,  0.168 sec
     gradient                   ...        0 min,  0.002 sec
 * total energy  :   -27.8344823 Eh     change       -0.2945216E-04 Eh
   gradient norm :     0.0057135 Eh/α   predicted    -0.1520534E-04 ( -48.37%)
   displ. norm   :     0.1040780 α      lambda       -0.4157967E-04
   maximum displ.:     0.0593881 α      in ANC's #3, #5, #1, ...

........................................................................
.............................. CYCLE   46 ..............................
........................................................................

 iter      E             dE          RMSdq      gap      omega  full diag
   1    -28.1342090 -0.281342E+02  0.400E-02    2.24       0.0  T
   2    -28.1342095 -0.470815E-06  0.208E-02    2.24       1.2  T
   3    -28.1342090  0.445678E-06  0.809E-03    2.24       3.0  T
   4    -28.1342095 -0.429765E-06  0.402E-03    2.24       6.0  T
   5    -28.1342096 -0.105603E-06  0.201E-03    2.24      12.1  T
   6    -28.1342096 -0.420816E-07  0.482E-04    2.24      50.3  T
   7    -28.1342096 -0.277027E-08  0.136E-04    2.24     178.2  T
     SCC iter.                  ...        0 min,  0.177 sec
     gradient                   ...        0 min,  0.002 sec
 * total energy  :   -27.8345176 Eh     change       -0.3535463E-04 Eh
   gradient norm :     0.0048703 Eh/α   predicted    -0.2101670E-04 ( -40.55%)
   displ. norm   :     0.3025396 α      lambda       -0.1069636E-03
   maximum displ.:     0.1785409 α      in ANC's #3, #5, #1, ...

........................................................................
.............................. CYCLE   47 ..............................
........................................................................

 iter      E             dE          RMSdq      gap      omega  full diag
   1    -28.1325457 -0.281325E+02  0.109E-01    2.24       0.0  T
   2    -28.1325502 -0.452058E-05  0.578E-02    2.24       1.0  T
   3    -28.1325465  0.374605E-05  0.296E-02    2.24       1.0  T
   4    -28.1325514 -0.490909E-05  0.968E-03    2.24       2.5  T
   5    -28.1325515 -0.124556E-06  0.648E-03    2.24       3.7  T
   6    -28.1325520 -0.526310E-06  0.144E-03    2.24      16.8  T
   7    -28.1325521 -0.281846E-07  0.466E-04    2.24      52.0  T
   8    -28.1325521 -0.616613E-09  0.226E-04    2.24     107.3  T
     SCC iter.                  ...        0 min,  0.342 sec
     gradient                   ...        0 min,  0.058 sec
 * total energy  :   -27.8345626 Eh     change       -0.4500877E-04 Eh
   gradient norm :     0.0068506 Eh/α   predicted    -0.5837821E-04 (  29.70%)
   displ. norm   :     0.0417114 α      lambda       -0.4875749E-04
   maximum displ.:     0.0253205 α      in ANC's #3, #1, #5, ...

........................................................................
.............................. CYCLE   48 ..............................
........................................................................

 iter      E             dE          RMSdq      gap      omega  full diag
   1    -28.1341283 -0.281341E+02  0.200E-02    2.24       0.0  T
   2    -28.1341288 -0.424069E-06  0.104E-02    2.24       2.3  T
   3    -28.1341286  0.153444E-06  0.472E-03    2.24       5.1  T
   4    -28.1341287 -0.128717E-06  0.256E-03    2.24       9.5  T
   5    -28.1341288 -0.834706E-07  0.109E-03    2.24      22.3  T
   6    -28.1341288 -0.758055E-08  0.381E-04    2.24      63.6  T
   7    -28.1341288 -0.118985E-08  0.133E-04    2.24     182.5  T
     SCC iter.                  ...        0 min,  0.352 sec
     gradient                   ...        0 min,  0.064 sec
 * total energy  :   -27.8345917 Eh     change       -0.2906032E-04 Eh
   gradient norm :     0.0028587 Eh/α   predicted    -0.2442058E-04 ( -15.97%)
   displ. norm   :     0.0869632 α      lambda       -0.2903885E-04
   maximum displ.:     0.0473660 α      in ANC's #3, #5, #1, ...

........................................................................
.............................. CYCLE   49 ..............................
........................................................................

 iter      E             dE          RMSdq      gap      omega  full diag
   1    -28.1346615 -0.281347E+02  0.311E-02    2.24       0.0  T
   2    -28.1346618 -0.256549E-06  0.169E-02    2.24       1.4  T
   3    -28.1346611  0.699753E-06  0.954E-03    2.24       2.5  T
   4    -28.1346619 -0.844993E-06  0.321E-03    2.24       7.6  T
   5    -28.1346619 -0.482981E-08  0.241E-03    2.24      10.1  T
   6    -28.1346620 -0.754112E-07  0.279E-04    2.24      87.0  T
   7    -28.1346620 -0.273811E-09  0.160E-04    2.24     151.4  T
     SCC iter.                  ...        0 min,  0.158 sec
     gradient                   ...        0 min,  0.002 sec
 * total energy  :   -27.8346133 Eh     change       -0.2160572E-04 Eh
   gradient norm :     0.0015692 Eh/α   predicted    -0.1463068E-04 ( -32.28%)
   displ. norm   :     0.2110892 α      lambda       -0.2529070E-04
   maximum displ.:     0.1211355 α      in ANC's #3, #5, #1, ...

........................................................................
.............................. CYCLE   50 ..............................
........................................................................

 iter      E             dE          RMSdq      gap      omega  full diag
   1    -28.1340445 -0.281340E+02  0.682E-02    2.24       0.0  T
   2    -28.1340459 -0.137304E-05  0.377E-02    2.24       1.0  T
   3    -28.1340437  0.217421E-05  0.199E-02    2.24       1.2  T
   4    -28.1340464 -0.268640E-05  0.619E-03    2.24       3.9  T
   5    -28.1340464 -0.774495E-08  0.487E-03    2.24       5.0  T
   6    -28.1340467 -0.323487E-06  0.648E-04    2.24      37.4  T
   7    -28.1340467 -0.259706E-08  0.341E-04    2.24      71.1  T
     SCC iter.                  ...        0 min,  0.068 sec
     gradient                   ...        0 min,  0.002 sec
 * total energy  :   -27.8346258 Eh     change       -0.1249038E-04 Eh
   gradient norm :     0.0026228 Eh/α   predicted    -0.1289422E-04 (   3.23%)
   displ. norm   :     0.0377815 α      lambda       -0.1251501E-04
   maximum displ.:     0.0213561 α      in ANC's #3, #5, #1, ...

........................................................................
.............................. CYCLE   51 ..............................
........................................................................

 iter      E             dE          RMSdq      gap      omega  full diag
   1    -28.1346752 -0.281347E+02  0.174E-02    2.24       0.0  T
   2    -28.1346755 -0.246272E-06  0.938E-03    2.24       2.6  T
   3    -28.1346753  0.118251E-06  0.576E-03    2.24       4.2  T
   4    -28.1346755 -0.182800E-06  0.189E-03    2.24      12.9  T
   5    -28.1346755 -0.206307E-07  0.123E-03    2.24      19.7  T
   6    -28.1346756 -0.182196E-07  0.223E-04    2.24     108.8  T
   7    -28.1346756 -0.228063E-09  0.922E-05    2.24     263.2  T
     SCC iter.                  ...        0 min,  0.305 sec
     gradient                   ...        0 min,  0.077 sec
 * total energy  :   -27.8346330 Eh     change       -0.7154937E-05 Eh
   gradient norm :     0.0013634 Eh/α   predicted    -0.6265855E-05 ( -12.43%)
   displ. norm   :     0.0177681 α      lambda       -0.3910977E-05
   maximum displ.:     0.0134642 α      in ANC's #1, #7, #3, ...

........................................................................
.............................. CYCLE   52 ..............................
........................................................................

 iter      E             dE          RMSdq      gap      omega  full diag
   1    -28.1347169 -0.281347E+02  0.128E-02    2.24       0.0  T
   2    -28.1347171 -0.170761E-06  0.711E-03    2.24       3.4  T
   3    -28.1347172 -0.919222E-07  0.449E-03    2.24       5.4  T
   4    -28.1347173 -0.477351E-07  0.211E-03    2.24      11.5  T
   5    -28.1347173 -0.637831E-07  0.925E-04    2.24      26.2  T
   6    -28.1347173 -0.572599E-08  0.203E-04    2.24     119.2  T
     SCC iter.                  ...        0 min,  0.303 sec
     gradient                   ...        0 min,  0.075 sec
 * total energy  :   -27.8346367 Eh     change       -0.3712787E-05 Eh
   gradient norm :     0.0014432 Eh/α   predicted    -0.1955817E-05 ( -47.32%)
   displ. norm   :     0.0355572 α      lambda       -0.3509559E-05
   maximum displ.:     0.0242233 α      in ANC's #3, #5, #2, ...

........................................................................
.............................. CYCLE   53 ..............................
........................................................................

 iter      E             dE          RMSdq      gap      omega  full diag
   1    -28.1346390 -0.281346E+02  0.129E-02    2.23       0.0  T
   2    -28.1346390 -0.695533E-07  0.806E-03    2.24       3.0  T
   3    -28.1346390  0.777511E-07  0.500E-03    2.24       4.9  T
   4    -28.1346391 -0.139708E-06  0.149E-03    2.24      16.3  T
   5    -28.1346391 -0.351474E-07  0.593E-04    2.24      40.9  T
   6    -28.1346391 -0.325709E-08  0.137E-04    2.24     176.5  T
     SCC iter.                  ...        0 min,  0.285 sec
     gradient                   ...        0 min,  0.073 sec
 * total energy  :   -27.8346403 Eh     change       -0.3628664E-05 Eh
   gradient norm :     0.0007247 Eh/α   predicted    -0.1757124E-05 ( -51.58%)
   displ. norm   :     0.0638900 α      lambda       -0.4024733E-05
   maximum displ.:     0.0443437 α      in ANC's #3, #5, #1, ...

   *** GEOMETRY OPTIMIZATION CONVERGED AFTER 53 ITERATIONS ***

------------------------------------------------------------------------
 total energy gain   :        -2.5235287 Eh    -1583.5382 kcal/mol
 total RMSD          :         1.2563857 a0        0.6649 Å
 total power (kW/mol):      -125.0098832 (step) -301.3027 (real)
------------------------------------------------------------------------

 ANCopt (total)                0 d,  0 h,  0 min, 21.990 sec
 optimizer setup                ...        0 min,  0.000 sec (  0.001%)
 model hessian                  ...        0 min,  0.008 sec (  0.038%)
 ANC generation                 ...        0 min,  0.001 sec (  0.006%)
 coordinate transformation      ...        0 min,  0.000 sec (  0.002%)
 single point calculation       ...        0 min, 21.955 sec ( 99.844%)
 optimization log               ...        0 min,  0.004 sec (  0.018%)
 hessian update                 ...        0 min,  0.005 sec (  0.021%)
 rational function              ...        0 min,  0.008 sec (  0.037%)

================
 final structure:
================
17
 xtb: 6.7.1 (edcfbbe)
O           -0.32913679458175       -0.74270586741294       -2.15221147968143
S            0.17416000854369       -1.36054207994971       -0.92318636631358
N           -0.62587375768435       -0.07341327578694        0.51898409938407
C           -2.54877331162171        1.10662861116789       -0.20411651512673
N           -1.11922540000391        0.92472365522473       -0.18623110265047
C           -0.26273311196928        1.65047566357214       -0.94720548059040
C            1.05346868645415        1.35419562331617       -0.71863805440983
C            1.22603516277531        0.18162877994332        0.02299977858397
C            2.26233349111797       -0.29224832258806        0.95229052551096
H           -2.78732636291928        2.16759398095158       -0.26893580556887
H           -2.95826825204722        0.68897987932255        0.71467132373169
H           -2.98763792360328        0.58275726192889       -1.05771024536714
H           -0.65313027338140        2.43369222791490       -1.57028039028011
H            1.87481992657031        1.93304718954827       -1.09912261790003
H            3.15613565434672       -0.57205768092953        0.39289958698898
H            2.52557675061625        0.48376820948733        1.67127172780707
H            1.90446067738669       -1.16556070571252        1.49162337589027

 Bond Distances (Angstroems)
 ---------------------------
O1-S2=1.4648         S2-O1=1.4648         S2-N3=2.0920         S2-C8=2.0928         N3-S2=2.0920         N3-N5=1.3180         
C4-N5=1.4412         C4-H10=1.0894        C4-H11=1.0892        C4-H12=1.0935        N5-N3=1.3180         N5-C4=1.4412         
N5-C6=1.3562         C6-N5=1.3562         C6-C7=1.3684         C6-H13=1.0743        C7-C6=1.3684         C7-C8=1.3981         
C7-H14=1.0745        C8-S2=2.0928         C8-C7=1.3981         C8-C9=1.4704         C9-C8=1.4704         C9-H15=1.0909        
C9-H16=1.0902        C9-H17=1.0870        H10-C4=1.0894        H11-C4=1.0892        H12-C4=1.0935        H13-C6=1.0743        
H14-C7=1.0745        H15-C9=1.0909        H16-C9=1.0902        H17-C9=1.0870        
 C  H  Rav=1.0861 sigma=0.0070  Rmin=1.0743  Rmax=1.0935     8
 C  C  Rav=1.4123 sigma=0.0428  Rmin=1.3684  Rmax=1.4704     3
 N  C  Rav=1.3987 sigma=0.0425  Rmin=1.3562  Rmax=1.4412     2
 N  N  Rav=1.3180 sigma=0.0000  Rmin=1.3180  Rmax=1.3180     1
 S  C  Rav=2.0928 sigma=0.0000  Rmin=2.0928  Rmax=2.0928     1
 S  N  Rav=2.0920 sigma=0.0000  Rmin=2.0920  Rmax=2.0920     1
 S  O  Rav=1.4648 sigma=0.0000  Rmin=1.4648  Rmax=1.4648     1

 selected bond angles (degree)
 --------------------
N3-S2-O1=100.81                C8-S2-O1=103.96                C8-S2-N3= 55.05                N5-N3-S2=103.90                
H10-C4-N5=109.93               H11-C4-N5=108.30               H11-C4-H10=109.96              H12-C4-N5=110.32               
H12-C4-H10=109.41              H12-C4-H11=108.90              C4-N5-N3=118.26                C6-N5-N3=117.98                
C6-N5-C4=123.50                C7-C6-N5=113.44                H13-C6-N5=119.08               H13-C6-C7=127.18               
C8-C7-C6=112.89                H14-C7-C6=124.02               H14-C7-C8=123.05               C7-C8-S2=108.43                
C9-C8-S2=113.73                C9-C8-C7=133.83                H15-C9-C8=109.63               H16-C9-C8=110.95               
H16-C9-H15=108.84              H17-C9-C8=109.90               H17-C9-H15=108.55              H17-C9-H16=108.91              

 selected dihedral angles (degree)
 ---------------------------------
N5-N3-S2-O1=351.12            N5-N3-S2-C8= 90.69            C4-N5-N3-S2=113.04            C6-N5-N3-S2=298.71            
N3-N5-C4-H10=146.44           N3-N5-C4-H11= 26.28           N3-N5-C4-H12=267.18           C6-N5-C4-H10=320.44           
C6-N5-C4-H11=200.28           C6-N5-C4-H12= 81.18           C7-C6-N5-N3=350.91            C7-C6-N5-C4=176.89            
H13-C6-N5-N3=176.70           H13-C6-N5-C4=  2.68           C8-C7-C6-N5= 13.10            C8-C7-C6-H13=186.75           
H14-C7-C6-N5=190.72           H14-C7-C6-H13=  4.37          C7-C8-S2-O1=  4.77            C7-C8-S2-N3=271.21            
C9-C8-S2-O1=204.05            C9-C8-S2-N3=110.49            S2-C8-C7-C6= 53.30            S2-C8-C7-H14=235.65           
C9-C8-C7-C6=208.52            C9-C8-C7-H14= 30.88           H15-C9-C8-S2= 80.37           H15-C9-C8-C7=286.10           
H16-C9-C8-S2=200.62           H16-C9-C8-C7= 46.35           H17-C9-C8-S2=321.13           H17-C9-C8-C7=166.87           
           -------------------------------------------------
          |                Final Singlepoint                |
           -------------------------------------------------

          ...................................................
          :                      SETUP                      :
          :.................................................:
          :  # basis functions                  50          :
          :  # atomic orbitals                  49          :
          :  # shells                           27          :
          :  # electrons                        50          :
          :  max. iterations                   250          :
          :  Hamiltonian                  GFN2-xTB          :
          :  restarted?                      false          :
          :  GBSA solvation                  false          :
          :  PC potential                    false          :
          :  electronic temp.          300.0000000     K    :
          :  accuracy                    1.0000000          :
          :  -> integral cutoff          0.2500000E+02      :
          :  -> integral neglect         0.1000000E-07      :
          :  -> SCF convergence          0.1000000E-05 Eh   :
          :  -> wf. convergence          0.1000000E-03 e    :
          :  Broyden damping             0.4000000          :
          :  net charge                          0          :
          :  unpaired electrons                  0          :
          ...................................................

 iter      E             dE          RMSdq      gap      omega  full diag
   1    -28.1346391 -0.281346E+02  0.633E-05    2.24       0.0  T
   2    -28.1346391 -0.398970E-11  0.418E-05    2.24     579.9  T
   3    -28.1346391 -0.338929E-11  0.313E-05    2.24     774.1  T

   *** convergence criteria satisfied after 3 iterations ***

         #    Occupation            Energy/Eh            Energy/eV
      -------------------------------------------------------------
         1        2.0000           -0.7288559             -19.8332
       ...           ...                  ...                  ...
        19        2.0000           -0.4687608             -12.7556
        20        2.0000           -0.4635789             -12.6146
        21        2.0000           -0.4422063             -12.0330
        22        2.0000           -0.4170542             -11.3486
        23        2.0000           -0.4110112             -11.1842
        24        2.0000           -0.3833095             -10.4304
        25        2.0000           -0.3342386              -9.0951 (HOMO)
        26                         -0.2520820              -6.8595 (LUMO)
        27                         -0.2400721              -6.5327
        28                         -0.2179968              -5.9320
        29                         -0.1609909              -4.3808
        30                         -0.1221858              -3.3248
       ...                                ...                  ...
        49                          0.8785964              23.9078
      -------------------------------------------------------------
                  HL-Gap            0.0821566 Eh            2.2356 eV
             Fermi-level           -0.2931603 Eh           -7.9773 eV

 SCC (total)                   0 d,  0 h,  0 min,  0.189 sec
 SCC setup                      ...        0 min,  0.000 sec (  0.176%)
 Dispersion                     ...        0 min,  0.000 sec (  0.040%)
 classical contributions        ...        0 min,  0.000 sec (  0.008%)
 integral evaluation            ...        0 min,  0.001 sec (  0.448%)
 iterations                     ...        0 min,  0.110 sec ( 58.257%)
 molecular gradient             ...        0 min,  0.077 sec ( 40.881%)
 printout                       ...        0 min,  0.000 sec (  0.180%)

         :::::::::::::::::::::::::::::::::::::::::::::::::::::
         ::                     SUMMARY                     ::
         :::::::::::::::::::::::::::::::::::::::::::::::::::::
         :: total energy             -27.834640292523 Eh    ::
         :: gradient norm              0.000755373904 Eh/a0 ::
         :: HOMO-LUMO gap              2.235593702183 eV    ::
         ::.................................................::
         :: SCC energy               -28.134591093171 Eh    ::
         :: -> isotropic ES            0.043372039062 Eh    ::
         :: -> anisotropic ES         -0.001750161080 Eh    ::
         :: -> anisotropic XC          0.014470799479 Eh    ::
         :: -> dispersion             -0.015476572352 Eh    ::
         :: repulsion energy           0.298634873854 Eh    ::
         :: add. restraining           0.001315926794 Eh    ::
         :: total charge              -0.000000000000 e     ::
         :::::::::::::::::::::::::::::::::::::::::::::::::::::

           -------------------------------------------------
          |                Property Printout                |
           -------------------------------------------------

    * Orbital Energies and Occupations

         #    Occupation            Energy/Eh            Energy/eV
      -------------------------------------------------------------
         1        2.0000           -0.7288559             -19.8332
       ...           ...                  ...                  ...
        13        2.0000           -0.5078254             -13.8186
        14        2.0000           -0.5057001             -13.7608
        15        2.0000           -0.4956099             -13.4862
        16        2.0000           -0.4862951             -13.2328
        17        2.0000           -0.4820263             -13.1166
        18        2.0000           -0.4773449             -12.9892
        19        2.0000           -0.4687608             -12.7556
        20        2.0000           -0.4635789             -12.6146
        21        2.0000           -0.4422063             -12.0330
        22        2.0000           -0.4170542             -11.3486
        23        2.0000           -0.4110112             -11.1842
        24        2.0000           -0.3833095             -10.4304
        25        2.0000           -0.3342386              -9.0951 (HOMO)
        26                         -0.2520820              -6.8595 (LUMO)
        27                         -0.2400721              -6.5327
        28                         -0.2179968              -5.9320
        29                         -0.1609909              -4.3808
        30                         -0.1221858              -3.3248
        31                          0.0116683               0.3175
        32                          0.0260561               0.7090
        33                          0.0772270               2.1015
        34                          0.0938831               2.5547
        35                          0.1121423               3.0515
        36                          0.1277466               3.4762
       ...                                ...                  ...
        49                          0.8785964              23.9078
      -------------------------------------------------------------
                  HL-Gap            0.0821566 Eh            2.2356 eV
             Fermi-level           -0.2931603 Eh           -7.9773 eV

     #   Z          covCN         q      C6AA      α(0)
     1   8 O        0.859    -0.447    22.651     6.381
     2  16 S        2.529     0.294   129.623    19.162
     3   7 N        2.265    -0.273    27.403     7.771
     4   6 C        3.698    -0.056    21.760     6.672
     5   7 N        2.857     0.102    19.477     6.555
     6   6 C        2.903     0.011    27.762     8.639
     7   6 C        2.932    -0.063    29.558     8.916
     8   6 C        3.357     0.033    24.433     7.770
     9   6 C        3.754    -0.109    22.632     6.783
    10   1 H        0.925     0.060     2.201     2.320
    11   1 H        0.925     0.078     2.004     2.214
    12   1 H        0.924     0.072     2.062     2.245
    13   1 H        0.926     0.046     2.371     2.408
    14   1 H        0.926     0.051     2.302     2.373
    15   1 H        0.924     0.066     2.132     2.283
    16   1 H        0.925     0.061     2.185     2.312
    17   1 H        0.925     0.073     2.055     2.242

 Mol. C6AA /au·bohr⁶  :       3901.468357
 Mol. C8AA /au·bohr⁸  :     103194.968261
 Mol. α(0) /au        :         97.045367


Wiberg/Mayer (AO) data.
largest (>0.10) Wiberg bond orders for each atom

 ---------------------------------------------------------------------------
     #   Z sym  total        # sym  WBO       # sym  WBO       # sym  WBO
 ---------------------------------------------------------------------------
     1   8 O    2.099 --     2 S    1.812     3 N    0.116
     2  16 S    3.480 --     1 O    1.812     3 N    0.681     8 C    0.666
                             5 N    0.114
     3   7 N    2.955 --     5 N    1.227     8 C    0.718     2 S    0.681
                             1 O    0.116
     4   6 C    3.965 --     5 N    0.985    11 H    0.978    10 H    0.978
                            12 H    0.969
     5   7 N    3.669 --     3 N    1.227     6 C    1.222     4 C    0.985
                             2 S    0.114
     6   6 C    3.965 --     7 C    1.518     5 N    1.222    13 H    0.966
     7   6 C    3.975 --     6 C    1.518     8 C    1.304    14 H    0.948
     8   6 C    3.935 --     7 C    1.304     9 C    1.057     3 N    0.718
                             2 S    0.666
     9   6 C    3.994 --     8 C    1.057    17 H    0.971    16 H    0.966
                            15 H    0.956
    10   1 H    0.996 --     4 C    0.978
    11   1 H    0.994 --     4 C    0.978
    12   1 H    0.995 --     4 C    0.969
    13   1 H    0.998 --     6 C    0.966
    14   1 H    0.997 --     7 C    0.948
    15   1 H    0.994 --     9 C    0.956
    16   1 H    0.996 --     9 C    0.966
    17   1 H    0.994 --     9 C    0.971
 ---------------------------------------------------------------------------

Topologies differ in total number of bonds
Writing topology from bond orders to xtbtopo.mol

molecular dipole:
                 x           y           z       tot (Debye)
 q only:        0.149       0.566       1.030
   full:        0.155       0.867       0.681       2.831
molecular quadrupole (traceless):
                xx          xy          yy          xz          yz          zz
 q only:        8.726      -4.778       2.429       0.699      -3.667     -11.155
  q+dip:        9.267      -4.630       2.557       0.935      -4.220     -11.824
   full:        9.063      -4.737       2.545       0.971      -3.359     -11.608

           -------------------------------------------------
          |                Geometry Summary                 |
           -------------------------------------------------

      molecular mass/u    :      144.1948042
   center of mass at/Å    :       -0.0226562       0.0767786      -0.4843736
  moments of inertia/u·Å² :        0.2466642E+03   0.3606425E+03   0.4436549E+03
rotational constants/cm⁻¹ :        0.6834245E-01   0.4674333E-01   0.3799717E-01

 * 15 selected distances

     #   Z          #   Z                                           value/Å
     1   8 O        2  16 S                                       1.4647636
     3   7 N        5   7 N                                       1.3179537
     4   6 C        5   7 N                                       1.4411859
     5   7 N        6   6 C                                       1.3562365
     6   6 C        7   6 C                                       1.3683612
     7   6 C        8   6 C                                       1.3981127
     8   6 C        9   6 C                                       1.4703929 (max)
     4   6 C       10   1 H                                       1.0893837
     4   6 C       11   1 H                                       1.0891684
     4   6 C       12   1 H                                       1.0934651
     6   6 C       13   1 H                                       1.0742722 (min)
     7   6 C       14   1 H                                       1.0744560
     9   6 C       15   1 H                                       1.0909143
     9   6 C       16   1 H                                       1.0901527
     9   6 C       17   1 H                                       1.0870270

 * 5 distinct bonds (by element types)

   Z      Z             #   av. dist./Å        max./Å        min./Å
   1 H    6 C           8     1.0861049     1.0934651     1.0742722
   6 C    6 C           3     1.4122890     1.4703929     1.3683612
   6 C    7 N           2     1.3987112     1.4411859     1.3562365
   7 N    7 N           1     1.3179537     1.3179537     1.3179537
   8 O   16 S           1     1.4647636     1.4647636     1.4647636


optimized geometry written to: xtbopt.xyz


           -------------------------------------------------
          | TOTAL ENERGY              -27.834640292523 Eh   |
          | GRADIENT NORM               0.000755373904 Eh/α |
          | HOMO-LUMO GAP               2.235593702183 eV   |
           -------------------------------------------------

------------------------------------------------------------------------
 * finished run on 2026/08/20 at 02:55:33.207     
------------------------------------------------------------------------
 total:
 * wall-time:     0 d,  0 h,  0 min, 22.929 sec
 *  cpu-time:     0 d,  0 h,  5 min, 52.904 sec
 * ratio c/w:    15.391 speedup
 SCF:
 * wall-time:     0 d,  0 h,  0 min,  0.625 sec
 *  cpu-time:     0 d,  0 h,  0 min,  9.218 sec
 * ratio c/w:    14.756 speedup
 ANC optimizer:
 * wall-time:     0 d,  0 h,  0 min, 22.196 sec
 *  cpu-time:     0 d,  0 h,  5 min, 43.450 sec
 * ratio c/w:    15.473 speedup

