17
Properties=species:S:1:pos:R:3 pbc="F F F"
O       -0.02327187      -4.11822909      -0.12719683
S       -0.10086628      -3.17120776       0.98128398
N       -0.75543619       0.11957273       0.04673271
C       -1.58103688      -0.98679577       0.42861002
N       -1.30220179       1.25148011      -0.39195840
C       -0.29602098       2.05910756      -0.66442936
C        0.92995532       1.43912733      -0.39531611
C        0.59660049       0.18140004       0.06369501
C        1.43903194      -0.95427748       0.51625655
H        1.21962892      -1.20930618       1.55374373
H        2.48903195      -0.68678319       0.43837852
H        1.25720840      -1.83963523      -0.09401828
H        1.91197483       1.84781013      -0.51849671
H       -0.48011017       3.04653625      -1.03823746
H       -1.40676562      -1.25911284       1.47198662
H       -1.38064717      -1.85670741      -0.20130847
H       -2.61752549      -0.68149285       0.30268975
