17
 energy: -27.872945069297 gnorm: 0.000863199076 xtb: 6.7.1 (edcfbbe)
O           -0.21148556072479       -1.69120186991824       -1.19311632860175
S           -0.07878143148537       -1.21837536032068        0.18929746658315
N           -1.32439127492262       -0.11553681628101        0.45033488785410
C           -2.69346801631202        1.52656795331564       -0.42136182362450
N           -1.36143207174255        0.96951133510051       -0.26253600848090
C           -0.32589188299269        1.58090954415701       -0.79843156467101
C            1.00185244719811        1.17623811428556       -0.50326756372272
C            1.28112031215323       -0.00490661255874        0.07182148766983
C            2.60853051250248       -0.45923729315091        0.55317091566267
H           -2.65213932696362        2.61069405775356       -0.50339970693234
H           -3.28455664220670        1.23098857653013        0.44376350506380
H           -3.15620080286685        1.10804527042492       -1.31678974336329
H           -0.51594225819107        2.46768019815408       -1.37834346681287
H            1.78879695137869        1.88381725459274       -0.73405716852037
H            2.92173327221396       -1.34367517901175       -0.00180282224824
H            3.36155142335637        0.31792438588894        0.43669875818109
H            2.54558951960545       -0.73848040896139        1.60512153596345
