17
Properties=species:S:1:pos:R:3 energy:=T -27.889159993411=T gnorm:=T 0.000536668661=T xtb:=T 6.7.1=T (edcfbbe)=T pbc="F F F"
O       -0.01788763      -2.81277947      -0.47110421
S       -0.09548204      -1.86575814       0.63737660
N       -1.06233958      -0.00653581       0.14431874
C       -2.70630937      -0.65446651       0.24021540
N       -1.38935020       1.18152614      -0.38453147
C       -0.29040263       1.81119615      -0.58820547
C        1.01997256       1.28788826      -0.33456267
C        0.88692997       0.04631845       0.13692425
C        2.57239117      -0.55631217       0.38943165
H       -3.47537056       0.08214368       0.02006440
H       -2.84629375      -1.04721444       1.24850038
H       -2.77818085      -1.47804882      -0.47443826
H       -0.39935066       2.80262563      -0.99847385
H        1.85981254       1.93577881      -0.55215330
H        2.67076794      -1.46871926      -0.19949432
H        3.37891528       0.12473417       0.12634953
H        2.66623160      -0.83091458       1.44085121
