17
Properties=species:S:1:pos:R:3 pbc="F F F"
O       -0.31602264      -3.82046829      -1.31858045
S       -0.18395646      -3.34991479       0.05718767
N       -0.48098684       0.00987915       0.36713734
C       -2.56032467       1.06461949      -0.20676397
N       -1.13038869       0.98463636      -0.26471928
C       -0.28213746       1.80330235      -0.91810600
C        0.98723588       1.32764137      -0.69064740
C        0.80639960       0.19551675       0.12489702
C        1.84652221      -0.71204924       0.67793262
H        2.43388308      -1.15157655      -0.12682046
H        2.52347081      -0.16132931       1.32971886
H        1.36963999      -1.50452318       1.24772580
H       -0.63236922       2.64430958      -1.48295837
H        1.91169772       1.72885440      -1.05292907
H       -2.87704470       2.03933872       0.17096224
H       -2.99909920       0.90756406      -1.19573836
H       -2.90586307       0.28404121       0.46794076
