17
 energy: -27.889159993411 gnorm: 0.000536668661 xtb: 6.7.1 (edcfbbe)
O           -0.01493184214855       -2.08832305270544       -0.66141867328939
S           -0.09249560997749       -1.14167565052218        0.44662445793991
N           -1.41513370792975       -0.01610178983427        0.14565704861979
C           -2.70630937058304       -0.65446651021650        0.24021539874994
N           -1.38935020273263        1.18152613999010       -0.38453147209965
C           -0.29040262587244        1.81119614559353       -0.58820547019712
C            1.01997255986755        1.28788826399613       -0.33456267069559
C            1.23972409564542        0.05588442865774        0.13558593450249
C            2.57239116573664       -0.55631217215969        0.38943165053032
H           -3.47537055560592        0.08214368142000        0.02006440469715
H           -2.84629374825703       -1.04721444023442        1.24850038351484
H           -2.77818085093430       -1.47804882230269       -0.47443825931008
H           -0.39935065681789        2.80262563328673       -0.99847384855638
H            1.85981253820336        1.93577881024415       -0.55215329878394
H            2.67076793599216       -1.46871925925847       -0.19949431907772
H            3.37891527595620        0.12473417121399        0.12634952535352
H            2.66623159945784       -0.83091457716886        1.44085120810184
