17
Properties=species:S:1:pos:R:3:forces:R:3:charge:R:1 energy:=T -27.872945069297=T gnorm:=T 0.000863199076=T xtb:=T 6.7.1=T (edcfbbe)=T energy=-758.0164857745056 free_energy=-758.0164857745056 dipole="0.06049451500837195 0.6012797485448469 0.46780596627613075" pbc="F F F"
O       -0.33246373      -1.35377047      -1.90381987       0.00184292      -0.00661510       0.02390995      -0.49754679
S        0.01436026      -1.45978800      -0.48928003       0.00121554      -0.00649924      -0.03625339       0.47662221
N       -0.79935123      -0.22456672       0.39074624      -0.01157166       0.02192872       0.00170072      -0.30730043
C       -2.47309979       1.37270013      -0.09213534      -0.00268221      -0.00177559      -0.00229943      -0.06110518
N       -1.18345377       0.79487365      -0.36933816       0.01370837      -0.00029419       0.01058719       0.09812919
C       -0.27622879       1.34434058      -1.19597827      -0.01273150      -0.00431180       0.00016645      -0.00013036
C        1.02242855       0.99424520      -0.89600730       0.00213560       0.00180857      -0.00513367      -0.06634865
C        1.16210797      -0.12748772      -0.08881762      -0.00950411      -0.01202808       0.00250164       0.00099458
C        2.25333927      -0.40963977       0.87892428       0.01440884       0.01543002       0.00965749      -0.11572084
H       -2.44479873       2.45226541      -0.23461237       0.00128317      -0.00228178       0.00142766       0.06070837
H       -2.72796123       1.13862349       0.94102039      -0.00238639       0.00280645      -0.00346463       0.08087198
H       -3.23332953       0.93911836      -0.74713353       0.00154218      -0.00076296       0.00239565       0.06723476
H       -0.58793240       2.11841191      -1.87285980       0.00625834      -0.00167452       0.00155270       0.04034743
H        1.85784103       1.61083999      -1.17465203       0.00279729       0.00104718      -0.00020431       0.04722961
H        2.82801718      -1.28309459       0.56909728      -0.00040953       0.00276347      -0.00549375       0.05409852
H        2.91897303       0.44670375       0.97171126      -0.00352149      -0.00085990       0.00401845       0.05552158
H        1.82953304      -0.62205083       1.85948287      -0.00238533      -0.00868125      -0.00506871       0.06639403
