17
Properties=species:S:1:pos:R:3:forces:R:3 energy:=T -27.889159993411=T gnorm:=T 0.000536668661=T xtb:=T 6.7.1=T (edcfbbe)=T energy=-757.9013277815532 pbc="F F F"
O       -0.07187902      -1.23309711      -2.41753135      -0.00645597       0.01860551      -0.01927218
S       -0.04597716      -1.50655137      -0.99585692       0.00658952      -0.04715703       0.02889526
N       -0.98195002      -0.18509878      -0.11940296      -0.00515638       0.00672775      -0.04219201
C       -1.85746008      -0.63874986       0.92996144      -0.00956381       0.01704174       0.00656256
N       -1.30147857       0.90786234      -0.78095307      -0.03446551      -0.01749081       0.03307546
C       -0.23225516       1.50142519      -1.27786997       0.02847333       0.01147354      -0.00892660
C        0.98569985       1.02736026      -0.81406224       0.01492937       0.02783107      -0.01876560
C        0.86413113      -0.16672138      -0.10680945      -0.00077717      -0.01587673       0.03069512
C        1.68591538      -0.63083938       1.04497471       0.00084377       0.00991070      -0.00940698
H       -2.49616689       0.18894086       1.23601476       0.00200203      -0.00187198       0.00412043
H       -1.26792031      -0.97047325       1.78576584       0.00551271      -0.00675041      -0.00618432
H       -2.47674488      -1.46854220       0.58308441      -0.00263965       0.00298014      -0.00275423
H       -0.37524721       2.38213814      -1.87504145      -0.00248267      -0.00008812      -0.00068754
H        1.88351867       1.61540012      -0.82932713       0.00044911      -0.00295171      -0.00059088
H        2.46786784      -1.30958053       0.70258640       0.00342185       0.00365893       0.00308432
H        2.14612507       0.21244013       1.55627621      -0.00276205       0.00159943       0.00257662
H        1.06787516      -1.17445110       1.75925936       0.00208151      -0.00764202      -0.00022942
