17
Properties=species:S:1:pos:R:3 energy:=T -27.872945069297=T gnorm:=T 0.000863199076=T xtb:=T 6.7.1=T (edcfbbe)=T pbc="F F F"
O       -0.24961861      -2.47468475      -1.23517070
S       -0.11755243      -2.00413126       0.14059743
N       -0.98565638      -0.10115411       0.40112547
C       -2.69346802       1.52656795      -0.42136182
N       -1.36143207       0.96951134      -0.26253601
C       -0.32589188       1.58090954      -0.79843156
C        1.00185245       1.17623811      -0.50326756
C        0.94238542      -0.01928932       0.12103090
C        2.60853051      -0.45923729       0.55317092
H       -2.65213933       2.61069406      -0.50339971
H       -3.28455664       1.23098858       0.44376351
H       -3.15620080       1.10804527      -1.31678974
H       -0.51594226       2.46768020      -1.37834347
H        1.78879695       1.88381725      -0.73405717
H        2.92173327      -1.34367518      -0.00180282
H        3.36155142       0.31792439       0.43669876
H        2.54558952      -0.73848041       1.60512154
