15

C          1.93585       -1.11511       -0.00231
C          0.52652       -0.65705        0.00426
C         -0.65465       -1.36918        0.00900
C         -1.66755       -0.39537        0.00871
N         -1.17776        0.84548        0.00739
N          0.15651        0.66485        0.00749
C          1.02817        1.81636        0.01874
H          1.99104       -2.20845        0.01095
H          2.46988       -0.74105        0.87679
H          2.45263       -0.76372       -0.90100
H         -0.76907       -2.44384        0.01113
H         -2.74038       -0.53694        0.00971
H          0.42881        2.73014       -0.01069
H          1.67503        1.76961       -0.86063
H          1.61998        1.79022        0.93685
