15

C         -2.45664        0.64562       -0.02168
C         -1.07928        0.09988       -0.01122
N         -0.01850        0.91739       -0.01321
N          1.03615        0.08370       -0.01123
C          0.68625       -1.23441       -0.00407
C         -0.68771       -1.25954       -0.00460
C          2.37804        0.61231       -0.02850
H         -2.45806        1.74008        0.00006
H         -3.01453        0.28870        0.84986
H         -2.98517        0.32398       -0.92477
H          1.42497       -2.02317       -0.00301
H         -1.32352       -2.13329       -0.00326
H          2.34335        1.70433        0.00575
H          2.86350        0.28272       -0.95033
H          2.91122        0.22861        0.84461
