12

C          2.20842        0.02319       -0.00219
C          0.72727        0.07185       -0.00042
C         -0.10716        1.21297       -0.00071
C         -1.38756        0.71582        0.00024
N         -1.26252       -0.64167        0.00095
N          0.01291       -1.06084        0.00089
H          2.63500        1.03136        0.00197
H          2.57534       -0.49563       -0.89364
H          2.57758       -0.50372        0.88346
H          0.18849        2.25236       -0.00128
H         -2.35538        1.19571       -0.00043
H         -1.99754       -1.34082        0.00157
