12

C         -2.26575       -0.06964       -0.00308
C         -0.79497        0.08229       -0.00173
C          0.01585        1.19578        0.00000
C          1.32653        0.68640        0.00635
N          1.35255       -0.64775        0.00479
N          0.05404       -0.99192       -0.00362
H         -2.75925        0.90730        0.02056
H         -2.59684       -0.63652        0.87288
H         -2.59870       -0.59577       -0.90330
H         -0.29413        2.23092       -0.00143
H          2.26172        1.23131        0.01198
H         -0.18055       -1.97883       -0.01051
