12
 energy: -17.451140243828 gnorm: 0.001397652759 xtb: 6.7.1 (edcfbbe)
C           -2.26610502941438       -0.07507679887683       -0.00458173037636
C           -0.78899413939593        0.07747599291804       -0.00081826213293
C            0.02150525402754        1.19158107675067        0.00369555461884
C            1.33075610060108        0.68890147869548        0.00385953818578
N            1.33225827071554       -0.62779916260308        0.00096400765924
N            0.04827880735392       -0.98501450821095       -0.00133974646927
H           -2.73869176050696        0.90258037838253        0.01709544256098
H           -2.59677220777762       -0.64268642483298        0.86523608458214
H           -2.59663175665327       -0.60260793142045       -0.89949587411310
H           -0.28351360976140        2.21760705602442        0.00603111293032
H            2.25496842610884        1.23070017919803        0.00665705156383
H           -0.19655835529736       -1.96209133602488       -0.00441317900947
